LAMMPS (3 Mar 2020)
OMP_NUM_THREADS environment is not set. Defaulting to 1 thread. (../comm.cpp:94)
  using 1 OpenMP thread(s) per MPI task
#
#
# VARIABLES
variable T         equal  0.50 #0.10 0.36 0.70
variable num       equal  1
variable N         equal  100 #200 # 250 300 350
variable box       equal  50
variable t_step    equal  0.005
variable mix_steps equal  200000
variable mix_tau   equal  ${t_step}*${mix_steps}
variable mix_tau   equal  0.005*${mix_steps}
variable mix_tau   equal  0.005*200000
variable run_steps equal  200000
variable run_tau   equal  ${t_step}*${run_steps}
variable run_tau   equal  0.005*${run_steps}
variable run_tau   equal  0.005*200000

# PARAMETERS
units lj
atom_style molecular
neighbor 0.4 bin
neigh_modify every 1 delay 1 check yes
comm_modify vel yes
comm_modify cutoff 1.9
#KG added to remove "Communication cutoff 1.52 is shorter than a bond length
#based estimate of 1.87. This may lead to errors" warning.

# READ
read_data rigid_rods.file
  orthogonal box = (-5 -5 -5) to (5 5 5)
  1 by 1 by 1 MPI processor grid
  reading atoms ...
  10 atoms
  scanning bonds ...
  1 = max bonds/atom
  scanning angles ...
  1 = max angles/atom
  reading bonds ...
  9 bonds
  reading angles ...
  8 angles
  2 = max # of 1-2 neighbors
  2 = max # of 1-3 neighbors
  4 = max # of 1-4 neighbors
  6 = max # of special neighbors
  special bonds CPU = 0.0153191 secs
  read_data CPU = 0.0458372 secs

#  BONDS
bond_style harmonic
special_bonds lj 0 1 1
  2 = max # of 1-2 neighbors
  2 = max # of 1-3 neighbors
  4 = max # of 1-4 neighbors
  6 = max # of special neighbors
  special bonds CPU = 0.0123441 secs
bond_coeff * 500.0 0.98  # the wildcard (*) means to have the same for all bond types.
bond_coeff 5 50.0 0.98

# ANGLES
angle_style harmonic
angle_coeff * 500.0  180
angle_coeff 4 0.1  180
angle_coeff 5 0.1  180

# PAIR lj/cut --with interactions, to steady state
pair_style lj/cut 1.0
pair_modify shift yes
pair_coeff * * 1  1.0  1.12

# THERMAL
timestep ${t_step}
timestep 0.005
thermo   100
thermo_style custom step time temp press pe ke etotal vol
thermo_modify norm no
reset_timestep 0

# FIX
fix 2 all nph iso 0.5 0.5 100
fix 3 all langevin 0.5 0.5 1 123456
#run 50000

#unfix 3
#fix 4 all nve
#fix 5 all langevin ${T} ${T} 1 123456
fix recen1 all recenter INIT INIT INIT


# DUMP OUTPUT
dump  1  all custom 1000 output.dump id mol type x y z vx vy vz

# FIX for RDF
#comm_modify cutoff 25.0
#compute   3 all rdf 500 5 6 cutoff 24.0
#fix       3 all ave/time 1 ${run_steps} ${run_steps} c_3[*] file rdf_T_${T}_N_${N}_box_${box}_tau_${run_tau}.rdf mode vector


# RUN
run ${run_steps}
run 200000
Neighbor list info ...
  update every 1 steps, delay 1 steps, check yes
  max neighbors/atom: 2000, page size: 100000
  master list distance cutoff = 1.52
  ghost atom cutoff = 1.9
  binsize = 0.76, bins = 14 14 14
  1 neighbor lists, perpetual/occasional/extra = 1 0 0
  (1) pair lj/cut, perpetual
      attributes: half, newton on
      pair build: half/bin/newton
      stencil: half/bin/3d/newton
      bin: standard
Per MPI rank memory allocation (min/avg/max) = 7.846 | 7.846 | 7.846 Mbytes
Step Time Temp Press PotEng KinEng TotEng Volume 
       0            0            0 5.2950237e-16 1.1130334e-27            0 1.1130334e-27         1000 
     100          0.5   0.32150359 0.00011515475    1.8393512    4.3402984    6.1796496     998.2897 
     200            1   0.43586596   0.02740753    5.2261588    5.8841904    11.110349    993.16571 
     300          1.5   0.59211824 -0.027450279    7.4530775    7.9935962    15.446674    984.74846 
     400            2   0.63200691  0.017516685    8.2240282    8.5320933    16.756122    973.09393 
     500          2.5   0.60488309  0.022952737    4.7449828    8.1659217    12.910905    958.44217 
     600            3   0.51901419 0.0051142148    8.2431709    7.0066916    15.249863    940.97031 
     700          3.5    0.7702864 0.0021672761     7.830241    10.398866    18.229107     920.8915 
     800            4    1.0849356  -0.06809329    7.8131343     14.64663    22.459765      898.489 
     900          4.5   0.82462934  0.012728705    4.0945609    11.132496    15.227057    874.02795 
    1000            5   0.55082915 0.0043493349    6.5187701    7.4361935    13.954964    847.96586 
    1100          5.5   0.50674223 -0.022477509    4.7993105    6.8410202    11.640331    820.63769 
    1200            6   0.62619891  0.017355521    5.6037896    8.4536853    14.057475    792.42164 
    1300          6.5   0.52868956 -0.017337405    6.8266865    7.1373091    13.963996    763.73165 
    1400            7   0.54469299 0.0094874465    6.3801244    7.3533554     13.73348    734.88757 
    1500          7.5   0.47889482   0.04802012    6.2997393    6.4650801    12.764819    706.25238 
    1600            8   0.72871081  0.018248742      5.38865    9.8375959    15.226246    678.11355 
    1700          8.5   0.65846754 0.0066193687    6.7125626    8.8893117    15.601874    650.74009 
    1800            9   0.52626355 -0.012653123    5.5479282    7.1045579    12.652486    624.35998 
    1900          9.5   0.66695604 0.00032373794    5.6739362    9.0039065    14.677843    599.14006 
    2000           10   0.64767489 -0.029526164     5.643738     8.743611    14.387349    575.19567 
    2100         10.5   0.69170575  0.022245274    5.8633667    9.3380277    15.201394    552.58492 
    2200           11   0.61939921 -0.055768488    6.0655884    8.3618893    14.427478    531.34077 
    2300         11.5   0.49726037  0.048536151    9.1824424     6.713015    15.895457     511.4534 
    2400           12   0.58416661 -0.037749505    6.1294281    7.8862493    14.015677    492.88447 
    2500         12.5   0.44690067  0.006201145     4.601353    6.0331591    10.634512    475.55562 
    2600           13   0.48492777  0.023501446    7.4789122    6.5465249    14.025437    459.39518 
    2700         13.5   0.40074499 -0.044316984    9.3274835    5.4100574    14.737541    444.31585 
    2800           14   0.54440351  -0.03047649    9.1937062    7.3494474    16.543154    430.23102 
    2900         14.5   0.50401206  0.034725276    5.0564786    6.8041628    11.860641     417.0398 
    3000           15   0.43818336  0.032355491    4.1351419    5.9154753    10.050617     404.6596 
    3100         15.5   0.58168217 -0.0067914455    6.0278188    7.8527092    13.880528    392.98956 
    3200           16   0.73652334  -0.02542109    6.6689925    9.9430651    16.612058    381.95723 
    3300         16.5   0.65620637 -0.034912597    6.7257287     8.858786    15.584515     371.4984 
    3400           17   0.40517878 -0.00083862435    5.7069045    5.4699135    11.176818     361.5518 
    3500         17.5   0.39137506  0.010817448    7.5433591    5.2835633    12.826922    352.06331 
    3600           18   0.54443014 -0.096847732    7.0118705    7.3498069    14.361677    342.98525 
    3700         18.5   0.71667647  0.065126184    4.8396358    9.6751323    14.514768    334.28611 
    3800           19   0.53584626 -0.0025849531    3.6746705    7.2339245    10.908595    325.92123 
    3900         19.5   0.42478694 -0.084202865    6.1688552    5.7346237    11.903479    317.86238 
    4000           20   0.61408207  0.048238764    4.7332608    8.2901079    13.023369    310.08678 
    4100         20.5   0.31239479 -0.027857884    5.1169499    4.2173297    9.3342796    302.57801 
    4200           21   0.44656781  0.043258579    4.9225279    6.0286654    10.951193     295.3172 
    4300         21.5   0.60960254  0.015531571    5.2741021    8.2296343    13.503736    288.29774 
    4400           22   0.49595375 -0.010148543    4.0423562    6.6953756    10.737732    281.49702 
    4500         22.5   0.51949377  -0.11993635    5.4483621    7.0131659    12.461528    274.91253 
    4600           23   0.51638095  0.083214462    5.6407926    6.9711428    12.611935    268.53062 
    4700         23.5    0.5699747  0.062027143    5.3387132    7.6946585    13.033372    262.34742 
    4800           24   0.58588871  -0.21913215    7.7989592    7.9094976    15.708457     256.3575 
    4900         24.5   0.29682327   0.18750133    10.432218    4.0071141    14.439333    250.53947 
    5000           25   0.59152485 -0.062370703    10.499966    7.9855855    18.485552    244.90989 
    5100         25.5   0.78772098 -0.058875755    8.0329198    10.634233    18.667153    239.46029 
    5200           26   0.50011258  0.033520844    12.476798    6.7515199    19.228318    234.19152 
    5300         26.5   0.77991878 -0.0099376713    4.9092592    10.528903    15.438163    229.10567 
    5400           27   0.77906532  0.062060723    5.7908405    10.517382    16.308222    224.19169 
    5500         27.5   0.51635515  0.025996699    5.4747015    6.9707945    12.445496    219.44174 
    5600           28   0.61596534  0.028123973    6.9017827    8.3155321    15.217315    214.84839 
    5700         28.5    0.4369093   0.13730558    6.1629413    5.8982756    12.061217    210.41258 
    5800           29   0.51394579 -0.052855457    6.2368125    6.9382681    13.175081    206.12808 
    5900         29.5   0.62412624   0.28372204    9.5596882    8.4257043    17.985393    201.98845 
    6000           30    0.6994287  -0.16610285    6.5485327    9.4422875     15.99082    197.99324 
    6100         30.5   0.68959236   0.18198251    4.4530218    9.3094968    13.762519    194.13842 
    6200           31    0.6260107 -0.049510278    3.9663589    8.4511445    12.417503    190.42024 
    6300         31.5   0.47993839 -0.047900261    4.0822167    6.4791682    10.561385    186.82986 
    6400           32   0.49383966  0.015046702    7.7618077    6.6668354    14.428643    183.36129 
    6500         32.5   0.37591797  -0.19813565    9.3808948    5.0748926    14.455787    180.01233 
    6600           33   0.66722287  0.064933967    2.9724804    9.0075087    11.979989    176.78035 
    6700         33.5    0.6492751  0.038276882    5.9391511    8.7652138    14.704365    173.65462 
    6800           34   0.68752753   0.03684363    4.5305602    9.2816217    13.812182    170.63675 
    6900         34.5   0.45149715  0.010496167    6.8510446    6.0952115    12.946256    167.71598 
    7000           35   0.49908746  -0.12442246     2.981154    6.7376808    9.7188348    164.89085 
    7100         35.5   0.40283773   0.15821164    6.1301649    5.4383093    11.568474    162.15434 
    7200           36   0.35138934 -0.050233227    5.0752691    4.7437561    9.8190252    159.51249 
    7300         36.5   0.44009891  -0.10455294    3.4453684    5.9413353    9.3867037    156.94893 
    7400           37   0.31952545    0.2718954    4.7538044    4.3135936    9.0673979    154.46686 
    7500         37.5   0.42340115 -0.081149263    6.5308987    5.7159156    12.246814    152.06491 
    7600           38   0.69949134 0.0069751312    4.1516397    9.4431331    13.594773     149.7412 
    7700         38.5   0.44452353   0.14680693    5.0842565    6.0010677    11.085324    147.48993 
    7800           39   0.53026815  -0.10011043    5.5368149      7.15862    12.695435    145.30573 
    7900         39.5   0.30857903  -0.11313253    4.8250538     4.165817    8.9908708     143.1835 
    8000           40   0.40804171 0.0075457347    3.8195934    5.5085631    9.3281565    141.12254 
    8100         40.5   0.56000493 -0.046639686    4.0407067    7.5600665    11.600773    139.12279 
    8200           41   0.46409725  0.045183367     4.969183    6.2653128    11.234496    137.18351 
    8300         41.5   0.60936218  -0.12009553    6.2385546    8.2263895    14.464944     135.3006 
    8400           42   0.64767942  0.058243728    6.1599807    8.7436722    14.903653    133.47105 
    8500         42.5   0.59841764  -0.10740086    5.4889845    8.0786381    13.567623    131.69409 
    8600           43   0.40807338  0.098080501    6.3071343    5.5089906    11.816125    129.96105 
    8700         43.5   0.64967765     0.199283     3.787232    8.7706483     12.55788    128.27021 
    8800           44   0.44934553  -0.10516707    6.9172432    6.0661646    12.983408    126.62432 
    8900         44.5   0.53483344    0.1191753    5.3849394    7.2202515    12.605191     125.0209 
    9000           45   0.71286464   0.25240188    6.1069527    9.6236727    15.730625    123.46172 
    9100         45.5   0.46629423  0.037996995    11.462658    6.2949722     17.75763     121.9498 
    9200           46   0.62330357  0.012245581    4.8592167    8.4145982    13.273815    120.47585 
    9300         46.5   0.47850327  0.073734324    6.3440909    6.4597941    12.803885    119.03842 
    9400           47   0.71839394   0.13010106    4.7028807    9.6983181    14.401199    117.63424 
    9500         47.5   0.43540788  -0.29772379    6.6416695    5.8780063    12.519676    116.26522 
    9600           48   0.39143599   0.38758064    5.8460175    5.2843859    11.130403    114.92605 
    9700         48.5   0.41835661   -0.3361431    7.7303791    5.6478143    13.378193    113.61812 
    9800           49   0.45010364   0.29714305    5.4899656    6.0763992    11.566365    112.33681 
    9900         49.5   0.44719139 -0.067733614    7.0007993    6.0370837    13.037883    111.08611 
   10000           50   0.48532202 -0.038896917    5.5243576    6.5518473    12.076205    109.86273 
   10100         50.5    0.5380518   0.17693214    6.0709192    7.2636994    13.334619     108.6651 
   10200           51   0.93301856  -0.39480646    5.0510318    12.595751    17.646782    107.49476 
   10300         51.5   0.67711984   0.29190581    5.1980074    9.1411178    14.339125      106.345 
   10400           52   0.71343944   0.29895544    6.5516607    9.6314324    16.183093    105.22127 
   10500         52.5   0.60652479  -0.75051135    10.247199    8.1880847    18.435284    104.11932 
   10600           53   0.99272672   0.56347992    7.3463409    13.401811    20.748152    103.03659 
   10700         53.5   0.73457719  -0.26237584    6.7183057    9.9167921    16.635098    101.97861 
   10800           54   0.65329186   0.40972364    6.7358418    8.8194402    15.555282    100.94024 
   10900         54.5   0.56908273  -0.25510711    2.8808707    7.6826169    10.563488    99.922534 
   11000           55   0.28167122   0.12187923    4.3944915    3.8025615    8.1970531    98.921092 
   11100         55.5   0.52443676   0.42748528    3.8354524    7.0798962    10.915349    97.938943 
   11200           56   0.42976867  -0.49287321    6.5144851    5.8018771    12.316362     96.98091 
   11300         56.5   0.61698403   -0.1711099    6.1104932    8.3292844    14.439778    96.037509 
   11400           57   0.52121805   0.60969468    4.6157241    7.0364436    11.652168    95.112652 
   11500         57.5   0.58482197  -0.14100323    7.8665873    7.8950966    15.761684    94.208549 
   11600           58   0.73141797  -0.37513784    6.2520063    9.8741426    16.126149    93.317842 
   11700         58.5   0.54253422   0.26906788    9.9669384     7.324212     17.29115    92.443046 
   11800           59   0.50487312  0.012963399    7.5730151    6.8157872    14.388802    91.586714 
   11900         59.5   0.51499909 0.0016151912    5.3294734    6.9524877    12.281961    90.742751 
   12000           60   0.55884136   0.12198298    6.7284126    7.5443583    14.272771    89.910913 
   12100         60.5   0.44107211  -0.23792122    7.9600039    5.9544734    13.914477    89.091567 
   12200           61   0.51422579 0.0032037711     6.027445    6.9420482    12.969493    88.284291 
   12300         61.5   0.42857571   -0.4062466    9.8439313     5.785772    15.629703    87.488709 
   12400           62   0.46206771   0.23652481    5.1900498    6.2379141    11.427964    86.704596 
   12500         62.5    0.5173507  -0.22228332    5.2500502    6.9842345    12.234285    85.931531 
   12600           63   0.43261392  0.038698422    5.0893201     5.840288    10.929608    85.168272 
   12700         63.5   0.44876853   0.15776813    6.5064346    6.0583751     12.56481    84.418567 
   12800           64    0.6156185  -0.26177586    5.6938647    8.3108498    14.004714    83.679527 
   12900         64.5   0.41571419   0.28156532    6.2150916    5.6121416    11.827233    82.949677 
   13000           65   0.49150453  -0.46163139     6.003883    6.6353112    12.639194    82.231873 
   13100         65.5   0.82298253   0.44727095    3.9229666    11.110264    15.033231    81.525211 
   13200           66   0.36444845   0.12471503     6.870665    4.9200541    11.790719    80.829196 
   13300         66.5   0.49648099  -0.12609221    4.6980684    6.7024934    11.400562    80.144105 
   13400           67   0.80805334  0.097480093    4.9992576     10.90872    15.907978     79.46633 
   13500         67.5   0.71202005   -0.3356445    4.6158125    9.6122707    14.228083    78.796882 
   13600           68   0.54362894   0.33361436    5.4498227    7.3389907    12.788813    78.134883 
   13700         68.5   0.34652621  -0.32479451     6.029804    4.6781038    10.707908    77.481717 
   13800           69   0.50395039  -0.17098095    2.5216746    6.8033302    9.3250049    76.835074 
   13900         69.5   0.24110475   -0.2193283    5.0450153    3.2549141    8.2999294    76.196563 
   14000           70   0.61808137  -0.29835245    3.9211453    8.3440985    12.265244    75.565053 
   14100         70.5   0.67143874   0.43408161    5.0140646     9.064423    14.078488    74.939564 
   14200           71   0.58369422  -0.20922896    5.9944017     7.879872    13.874274    74.322666 
   14300         71.5   0.77735525   0.01646678    6.8395832    10.494296    17.333879     73.71586 
   14400           72   0.74787433   -0.1058215    5.8036002    10.096303    15.899904    73.116073 
   14500         72.5   0.42322009  -0.32799043    7.9963682    5.7134712    13.709839    72.522605 
   14600           73   0.67443231   0.46376458    4.3748728    9.1048362    13.479709    71.938948 
   14700         73.5   0.54811474  -0.30166486    6.7263291     7.399549    14.125878    71.366728 
   14800           74   0.56607562  0.046432658    4.6716983    7.6420209    12.313719    70.800748 
   14900         74.5   0.50911052 -0.097733727    4.1052514    6.8729921    10.978244    70.241385 
   15000           75   0.52601016   0.22216344    4.6128151    7.1011372    11.713952    69.690751 
   15100         75.5   0.53102402   0.27072182    5.7709524    7.1688243    12.939777    69.147393 
   15200           76   0.50512293   -0.3361091    9.7170728    6.8191596    16.536232    68.612052 
   15300         76.5   0.43921878  0.003508063    6.9063262    5.9294535     12.83578    68.084507 
   15400           77   0.52653556   0.13232681    4.1841561    7.1082301    11.292386    67.565346 
   15500         77.5   0.63370795  0.062851044    4.7964207    8.5550573    13.351478    67.054737 
   15600           78   0.62280351  -0.14438764    5.1781453    8.4078474    13.585993    66.557062 
   15700         78.5   0.59985942   0.23766744    5.0066609    8.0981022    13.104763    66.068962 
   15800           79   0.75357666   0.16683053    3.0171221    10.173285    13.190407    65.587736 
   15900         79.5   0.33223599  -0.40100804    7.1393329    4.4851859    11.624519    65.112271 
   16000           80   0.37584623   0.23350267    6.2597883    5.0739242    11.333712    64.641891 
   16100         80.5   0.62993665  -0.17145791    4.4032621    8.5041448    12.907407     64.18004 
   16200           81    0.5133533  0.066162892    3.1908179    6.9302696    10.121088     63.72161 
   16300         81.5   0.43083055  -0.24406892    6.2146017    5.8162124    12.030814    63.269933 
   16400           82   0.58377207  0.085762241    5.6045287    7.8809229    13.485452    62.822589 
   16500         82.5   0.57336227   0.84590989    6.6919833    7.7403906    14.432374    62.381001 
   16600           83   0.51606716  -0.59030719    8.0427959    6.9669067    15.009703    61.947191 
   16700         83.5   0.46429788  -0.12203223    4.5959066    6.2680213    10.863928     61.51592 
   16800           84   0.58833029 -0.0086452333    3.9227029     7.942459    11.865162    61.086915 
   16900         84.5   0.53208796   0.17504536     6.874661    7.1831874    14.057848    60.662962 
   17000           85   0.84386567  -0.45939034    3.9106319    11.392186    15.302818    60.245558 
   17100         85.5   0.53849552  -0.20554856    7.9691569    7.2696896    15.238846    59.831923 
   17200           86   0.63092058   0.36489937    6.7137307    8.5174278    15.231158    59.422122 
   17300         86.5   0.44102879  -0.54509983    8.1910929    5.9538886    14.144982    59.016634 
   17400           87   0.70149045   0.61481078    4.5102624     9.470121    13.980383    58.614267 
   17500         87.5   0.82289224  -0.41358792    5.5163446    11.109045     16.62539    58.216057 
   17600           88   0.38033422   0.78281194    8.9592348     5.134512    14.093747    57.821926 
   17700         88.5   0.69119972  -0.50509936    6.0797515    9.3311962    15.410948    57.433029 
   17800           89   0.38455532   0.34609522     8.700752    5.1914968    13.892249    57.048706 
   17900         89.5   0.56200498   0.14033672    4.9062472    7.5870672    12.493314    56.667446 
   18000           90   0.56993044  -0.64484686    5.2004726    7.6940609    12.894534      56.2907 
   18100         90.5   0.26366972   0.69645984    5.0901713    3.5595412    8.6497125     55.91326 
   18200           91   0.43349872  -0.64700046    5.2525953    5.8522328    11.104828    55.542816 
   18300         91.5   0.46527031 -0.0048246745    6.5634699    6.2811491    12.844619    55.175331 
   18400           92   0.46425325   0.28519917    6.7489485    6.2674189    13.016367    54.811588 
   18500         92.5   0.42565918  -0.21738886    5.2900054    5.7463989    11.036404    54.453103 
   18600           93   0.47329475   0.20651085    5.3647219    6.3894791    11.754201    54.098911 
   18700         93.5   0.79584764   0.17924472    3.6353771    10.743943     14.37932      53.7495 
   18800           94   0.63904162  -0.17092302    3.0721343    8.6270619    11.699196    53.404484 
   18900         94.5   0.49441682 -0.053493436    5.3262959     6.674627    12.000923    53.062981 
   19000           95   0.44371787   0.38974707    4.6019803    5.9901913    10.592172    52.726884 
   19100         95.5   0.48728124  -0.65801305    6.5595094    6.5782967    13.137806    52.395586 
   19200           96   0.48183906   0.33645214    9.9597397    6.5048273    16.464567    52.066927 
   19300         96.5   0.67208953 0.0015067019     6.299757    9.0732086    15.372966    51.743112 
   19400           97   0.70471307   0.57857021     5.924936    9.5136265    15.438563    51.423174 
   19500         97.5   0.63833105 -0.0094013556    7.4870355    8.6174692    16.104505    51.107317 
   19600           98   0.61729718  0.015266765    4.8012726    8.3335119    13.134784    50.795007 
   19700         98.5   0.59169061  -0.11883559    6.1422242    7.9878232    14.130047    50.485001 
   19800           99   0.71282101  -0.21779942    5.1496617    9.6230836    14.772745    50.178126 
   19900         99.5   0.82148337  0.093422428    7.9055177    11.090025    18.995543    49.874247 
   20000          100   0.56387312  -0.64881078    5.2878202    7.6122872    12.900107    49.573598 
   20100        100.5    0.5441149   0.08931091    7.1789401    7.3455512    14.524491     49.27464 
   20200          101   0.44782191  0.010825928    8.0785186    6.0455957    14.124114    48.978293 
   20300        101.5   0.55234431  -0.14818111    5.9793792    7.4566482    13.436027    48.685096 
   20400          102   0.66116242   0.38178061    7.1378091    8.9256927    16.063502    48.394667 
   20500        102.5   0.69060662  -0.18527181    8.3576933    9.3231894    17.680883    48.105896 
   20600          103   0.62697926   0.75717109     4.985759      8.46422    13.449979      47.8197 
   20700        103.5   0.60180764  -0.68513216    7.0373811    8.1244032    15.161784    47.536188 
   20800          104   0.46161732   0.42752745    6.0375426    6.2318339    12.269376    47.256263 
   20900        104.5   0.46565197   0.20664813    4.2227931    6.2863016    10.509095    46.979847 
   21000          105   0.58392015   0.11575691    1.9037532     7.882922    9.7866751    46.706476 
   21100        105.5   0.47449603   0.45855636    3.7185872    6.4056964    10.124284    46.436161 
   21200          106   0.37144125 -0.057610771    4.0407111    5.0144568     9.055168    46.168328 
   21300        106.5   0.39197345   0.28434046    5.8130943    5.2916416    11.104736    45.902335 
   21400          107   0.49032534  -0.57107465     6.041136    6.6193922    12.660528    45.639194 
   21500        107.5   0.40079403   0.51108723    5.1924002    5.4107194     10.60312    45.378186 
   21600          108   0.41739272   -0.1163921    5.2851898    5.6348017    10.919992    45.120224 
   21700        108.5   0.47813524  -0.23656964    6.3475779    6.4548257    12.802404    44.865127 
   21800          109   0.55266095   0.20683716    5.2599999    7.4609229    12.720923    44.610455 
   21900        109.5   0.52135334  -0.82759504     7.446749    7.0382701    14.485019    44.357526 
   22000          110   0.46901772   0.30999153    5.4897138    6.3317393    11.821453    44.106809 
   22100        110.5   0.48231949   0.50053068    6.5692989    6.5113131    13.080612    43.858571 
   22200          111   0.57309454    0.5320478    9.0113169    7.7367763    16.748093    43.613324 
   22300        111.5   0.81472289  -0.10861909    5.7494704    10.998759    16.748229    43.371487 
   22400          112   0.59768294  -0.36878635    6.8837405    8.0687196     14.95246    43.133103 
   22500        112.5   0.82755026   0.27641217    4.5102937    11.171929    15.682222    42.896688 
   22600          113   0.89088318  0.057381508    6.7155641    12.026923    18.742487    42.661323 
   22700        113.5    0.6556428 -0.023848136    8.1889205    8.8511779    17.040098    42.427954 
   22800          114   0.66510859   0.49708955    5.6815346     8.978966    14.660501    42.197352 
   22900        114.5   0.55172061   0.33602466     8.161346    7.4482282    15.609574    41.969393 
   23000          115   0.48240922  -0.56216602    5.7067279    6.5125244    12.219252    41.743925 
   23100        115.5   0.57259513    1.4222558      6.89961    7.7300342    14.629644    41.520189 
   23200          116   0.58937537  -0.42160919    4.5549012    7.9565676    12.511469    41.300004 
   23300        116.5   0.22643988   0.15920768    5.0786494    3.0569383    8.1355878    41.081495 
   23400          117   0.28837231   -0.5647226    4.7013181    3.8930261    8.5943442    40.865157 
   23500        117.5   0.33326553   0.38518346     6.566577    4.4990846    11.065662    40.650582 
   23600          118   0.61165936  0.081674741     4.767437    8.2574013    13.024838    40.437896 
   23700        118.5   0.61501594  -0.29349568     7.770822    8.3027151    16.073537    40.226366 
   23800          119    0.5380997   0.66825767    5.2349783     7.264346    12.499324    40.013996 
   23900        119.5   0.64876422  -0.61257324    6.9904811    8.7583169    15.748798    39.805112 
   24000          120   0.65700801  -0.51553814    5.7146582    8.8696082    14.584266    39.597527 
   24100        120.5   0.63322123   0.25840724    7.2111072    8.5484866    15.759594    39.392251 
   24200          121   0.51805758   0.53588783    5.4648507    6.9937773    12.458628    39.188715 
   24300        121.5   0.61306331  -0.49051829    5.6453748    8.2763547     13.92173    38.986601 
   24400          122   0.45150173   0.50655018    4.6416135    6.0952734    10.736887    38.784846 
   24500        122.5   0.44131185   -1.1437036    9.2840341      5.95771    15.241744    38.584479 
   24600          123   0.71492174     1.280813    7.1308509    9.6514434    16.782294    38.385099 
   24700        123.5   0.67646448  -0.90984772    7.1859323    9.1322705    16.318203    38.189374 
   24800          124   0.48969351   0.95455855    5.9881958    6.6108624    12.599058     37.99419 
   24900        124.5   0.40511929   0.05227061    6.8369354    5.4691104    12.306046    37.800715 
   25000          125   0.54793367   -0.3153642    4.8713633    7.3971046    12.268468    37.609174 
   25100        125.5   0.47469921   0.64786481    7.4738158    6.4084394    13.882255     37.41911 
   25200          126    0.3709259  -0.46545777    3.6833752    5.0074997    8.6908748    37.230005 
   25300        126.5   0.32227111  -0.64414071    8.1058371      4.35066    12.456497    37.041503 
   25400          127   0.94339494  -0.13945895    6.4307183    12.735832     19.16655    36.853918 
   25500        127.5   0.88549245   0.73987188    10.620268    11.954148    22.574417    36.667728 
   25600          128   0.86717264  -0.68467647     7.199936    11.706831    18.906767    36.483611 
   25700        128.5   0.57809926  -0.66503357    6.6511733    7.8043401    14.455513    36.300311 
   25800          129   0.68453134   0.34865616    3.2931301    9.2411731    12.534303    36.118161 
   25900        129.5   0.65160218 -0.053932246     5.497221    8.7966294     14.29385    35.935837 
   26000          130   0.55772524  0.064804546    6.5145858    7.5292907    14.043877    35.754274 
   26100        130.5    0.4715422   0.34991281    4.7027144    6.3658198    11.068534    35.574681 
   26200          131   0.68246506    0.1136415    4.3926506    9.2132783    13.605929    35.397129 
   26300        131.5   0.37183453   0.82002714    7.6837469    5.0197661    12.703513    35.223302 
   26400          132   0.65363438 -0.060802159    5.2778472    8.8240642    14.101911    35.051606 
   26500        132.5   0.59817727  0.018265965    6.0238877    8.0753932    14.099281    34.882403 
   26600          133   0.47955997  -0.27097134    5.7682341    6.4740596    12.242294    34.715858 
   26700        133.5   0.57877721   0.82784243    4.4149297    7.8134923    12.228422    34.550814 
   26800          134   0.60037079  -0.47808276    2.7332789    8.1050057    10.838285    34.387328 
   26900        134.5   0.26946465   0.26375591    5.5763121    3.6377728    9.2140849    34.225592 
   27000          135    0.3453617 -0.034895649    4.1140333    4.6623829    8.7764162    34.065195 
   27100        135.5   0.45049306   0.18865706     6.216196    6.0816563    12.297852    33.906696 
   27200          136   0.59261522 -0.019625071    4.0930121    8.0003054    12.093318     33.74994 
   27300        136.5   0.48140553  -0.88637635    6.9291257    6.4989746      13.4281    33.595477 
   27400          137   0.54255081    1.3639934    7.5332272     7.324436    14.857663    33.442626 
   27500        137.5   0.89541488   0.32332429    4.6304183    12.088101    16.718519    33.293024 
   27600          138   0.54500865   0.68513655    6.6636153    7.3576167    14.021232    33.146121 
   27700        138.5   0.57444322   0.16849882    5.8207253    7.7549834    13.575709    33.002525 
   27800          139   0.69703237  0.051140302    3.9789074     9.409937    13.388844    32.862218 
   27900        139.5   0.42278017   0.67550665    6.8070358    5.7075323    12.514568    32.724445 
   28000          140   0.45832359  -0.53916821    10.605963    6.1873684    16.793331    32.589832 
   28100        140.5   0.59456763 -0.058230408    10.014525     8.026663    18.041188    32.457597 
   28200          141   0.64861152  -0.46063029    4.6409424    8.7562555    13.397198    32.327515 
   28300        141.5   0.59666751   0.87302847    5.4281765    8.0550114    13.483188    32.197988 
   28400          142   0.72469429    0.3816003    4.6510037    9.7833729    14.434377    32.069579 
   28500        142.5   0.47988564   0.43996063    6.3430763    6.4784562    12.821532    31.942687 
   28600          143   0.42215065  -0.55144486    4.4987403    5.6990338    10.197774    31.817484 
   28700        143.5   0.73947109   0.75157639    5.1023075    9.9828597    15.085167    31.692689 
   28800          144   0.42265938    0.3681885    6.4320061    5.7059016    12.137908    31.569191 
   28900        144.5   0.63768404   0.29829465    5.8012007    8.6087345    14.409935    31.446445 
   29000          145   0.61226984   0.36091181    5.8722406    8.2656429    14.137884    31.325639 
   29100        145.5   0.42178092   0.55920302     7.517283    5.6940424    13.211325     31.20559 
   29200          146   0.60246116   0.12614967    6.3963397    8.1332256    14.529565    31.085677 
   29300        146.5   0.49335032 -0.00037547861    7.5735474    6.6602293    14.233777    30.965877 
   29400          147   0.61189777  -0.76806918    4.1876947      8.26062    12.448315     30.84635 
   29500        147.5   0.37311017   0.50024138    7.1094848    5.0369873    12.146472    30.726844 
   29600          148   0.56961384   0.53958014     2.991909    7.6897868    10.681696     30.60936 
   29700        148.5   0.43240828   -0.2943262    4.4896062    5.8375118    10.327118    30.491791 
   29800          149     0.290659   -0.2338239     4.239365    3.9238965    8.1632615     30.37483 
   29900        149.5   0.39020742    1.1135333     5.224075    5.2678002    10.491875    30.258875 
   30000          150   0.29278759  -0.83984796    3.2157151    3.9526324    7.1683475    30.143322 
   30100        150.5   0.72886326   0.76856648    2.3061875     9.839654    12.145842    30.028378 
   30200          151   0.41250587   -0.5402396    6.6679798    5.5688292    12.236809    29.915115 
   30300        151.5   0.43075713   0.32850816     6.762653    5.8152213    12.577874    29.802353 
   30400          152   0.67050498  -0.20703242    4.1379904    9.0518172    13.189808    29.690629 
   30500        152.5   0.54607985 -0.082826361    4.1993766     7.372078    11.571455    29.579113 
   30600          153   0.62335498   0.77736525    3.2805468    8.4152922    11.695839    29.468434 
   30700        153.5   0.32199964   0.20376284    7.8699945    4.3469952     12.21699    29.359167 
   30800          154   0.59418767   0.17973175    5.9652373    8.0215336    13.986771    29.251174 
   30900        154.5   0.58791965   0.79553704    5.2887066    7.9369153    13.225622    29.144079 
   31000          155    0.4999563   -1.3614134    6.5733037    6.7494101    13.322714    29.037972 
   31100        155.5   0.45566858    1.9026671    12.365139    6.1515258    18.516665    28.932531 
   31200          156   0.46870311   -1.8171312    5.3910803     6.327492    11.718572    28.827604 
   31300        156.5   0.41170756   0.59939739    4.7138643     5.558052    10.271916    28.723078 
   31400          157   0.57784937   0.59130937    6.0894551    7.8009665    13.890422    28.620217 
   31500        157.5   0.76388493   0.23321488     3.920431    10.312447    14.232878    28.518097 
   31600          158   0.44486027   0.51623525    5.8429304    6.0056137    11.848544    28.415952 
   31700        158.5   0.58851776   0.23631997    6.7208173    7.9449898    14.665807    28.313138 
   31800          159    0.5945024   -1.2218986    7.2684778    8.0257823     15.29426    28.210273 
   31900        159.5    0.6050403   0.84576605    6.0659472    8.1680441    14.233991    28.107072 
   32000          160   0.36759203  -0.78142151    4.9044685    4.9624925     9.866961      28.0039 
   32100        160.5   0.32237117 -0.099788992    5.8951766    4.3520108    10.247187    27.900985 
   32200          161   0.55618764   0.33399356     4.817284    7.5085332    12.325817     27.79863 
   32300        161.5   0.53305048  0.074791383    4.8557672    7.1961814    12.051949    27.696332 
   32400          162   0.60180669   0.69031262    5.5215537    8.1243903    13.645944    27.595524 
   32500        162.5   0.67519786   0.93322155    3.1280241    9.1151711    12.243195    27.495516 
   32600          163   0.63816862   -1.7800735    6.3389814    8.6152764    14.954258    27.397203 
   32700        163.5   0.78728076    1.4041547    3.9833913     10.62829    14.611682    27.299539 
   32800          164   0.46572347   0.23927873    7.0318724    6.2872669    13.319139    27.202476 
   32900        164.5   0.81819486 -0.074313241    3.6697105    11.045631    14.715341    27.106188 
   33000          165   0.61431484   0.81898082    5.5639693    8.2932504     13.85722    27.011138 
   33100        165.5   0.65112746   0.42520753    6.1393484    8.7902207    14.929569    26.918372 
   33200          166   0.49092646   0.40277641    7.2162991    6.6275072    13.843806    26.827748 
   33300        166.5   0.55802456   -1.8637659    6.2237484    7.5333315     13.75708    26.738189 
   33400          167   0.60574507    1.0431286    8.3188076    8.1775584    16.496366    26.648694 
   33500        167.5   0.60206816  0.024064669    3.7588391    8.1279202    11.886759    26.559364 
   33600          168   0.47107149  -0.41877364    7.6814212    6.3594652    14.040886    26.471118 
   33700        168.5   0.76167761   0.53495605    4.0958461    10.282648    14.378494    26.382934 
   33800          169   0.42258568    0.7023079    7.2792979    5.7049066    12.984205    26.295459 
   33900        169.5   0.42053033   0.23081902    7.3503423    5.6771595    13.027502    26.208676 
   34000          170   0.41547716   -1.0446787    7.0928444    5.6089417    12.701786    26.121471 
   34100        170.5    0.5146906   0.91306561    3.3377365    6.9483231     10.28606    26.034254 
   34200          171   0.34732223   0.78637455     5.331569    4.6888501    10.020419    25.948095 
   34300        171.5   0.45796538  -0.50441814    4.4489149    6.1825326    10.631448    25.861947 
   34400          172   0.52130538    1.2156754    8.3807449    7.0376226    15.418368    25.776041 
   34500        172.5   0.34752264  -0.19434356    5.5046288    4.6915557    10.196185    25.692698 
   34600          173   0.48135563   0.93777237    9.3061179     6.498301    15.804419    25.608674 
   34700        173.5   0.47823552  -0.05152409    5.4541993    6.4561795    11.910379    25.525944 
   34800          174   0.60452434   0.99628464    6.5151653    8.1610786    14.676244    25.444196 
   34900        174.5   0.54444926   0.43493992    5.4993656     7.350065    12.849431    25.364138 
   35000          175   0.44421291   0.39015536    6.2182733    5.9968742    12.215148    25.285842 
   35100        175.5   0.59594086  -0.24922232    4.8599094    8.0452016    12.905111    25.208626 
   35200          176   0.69334964   0.46764329    6.7036854    9.3602201    16.063905    25.132001 
   35300        176.5   0.65250903  -0.36604466    6.3750157    8.8088719    15.183888    25.056669 
   35400          177   0.68341647  -0.55481314    10.041866    9.2261223    19.267988    24.981013 
   35500        177.5   0.79267535    1.2266612    9.6770804    10.701117    20.378198    24.906335 
   35600          178   0.66001647  -0.12762931    7.5706166    8.9102224    16.480839    24.833215 
   35700        178.5    1.1714775    1.3428901    5.2856477    15.814946    21.100594     24.76095 
   35800          179     0.552618  -0.52155195    6.7910566     7.460343      14.2514    24.688606 
   35900        179.5   0.81338572    1.1111873    5.4218949    10.980707    16.402602    24.616025 
   36000          180   0.87264833  -0.23894762    4.9583823    11.780752    16.739135    24.544518 
   36100        180.5   0.76833046  -0.47062402    6.3521462    10.372461    16.724607    24.473211 
   36200          181   0.63564376    1.4345014     6.131292    8.5811908    14.712483    24.402729 
   36300        181.5   0.93150189     1.188657    5.7895591    12.575276    18.364835    24.333354 
   36400          182   0.55376572   -1.0939722    7.2611901    7.4758372    14.737027    24.263983 
   36500        182.5   0.64152785    1.7034614    4.9200508    8.6606259    13.580677    24.194546 
   36600          183    0.4611356  -0.49865139    4.9109007    6.2253306    11.136231    24.126903 
   36700        183.5   0.55298716    0.6560823    6.0487367    7.4653267    13.514063    24.059978 
   36800          184   0.58323239    1.1689038    8.9807861    7.8736372    16.854423    23.993405 
   36900        184.5   0.59778365   -1.0428591    6.7691627    8.0700792    14.839242    23.927958 
   37000          185   0.51454491   0.62126347    6.6515716    6.9463563    13.597928    23.862726 
   37100        185.5   0.56745059  -0.11516068    5.8422908    7.6605829    13.502874    23.796365 
   37200          186   0.40174631   -1.7646518    5.3541502    5.4235752    10.777725    23.729026 
   37300        186.5    1.0090704   0.89510411    4.8362309     13.62245    18.458681    23.659774 
   37400          187   0.69017278    1.1413977     10.01028    9.3173326    19.327613    23.591273 
   37500        187.5   0.40292617   -1.5569377    7.4615861    5.4395032    12.901089    23.523177 
   37600          188   0.39562798    1.7995485    7.7959347    5.3409778    13.136912    23.455077 
   37700        188.5   0.66104848   -1.1494812    4.6818842    8.9241545    13.606039    23.387681 
   37800          189   0.82510726    0.2018216    6.0404744    11.138948    17.179422    23.319905 
   37900        189.5    0.6446954   0.36564939    7.7767619    8.7033879     16.48015    23.253271 
   38000          190    0.6914974  -0.13971646    6.8813954     9.335215     16.21661    23.185921 
   38100        190.5   0.38185421  -0.65341018     6.276774    5.1550318    11.431806     23.11659 
   38200          191   0.44751251    0.7959546    5.3975783    6.0414189    11.438997    23.047732 
   38300        191.5   0.43472943  -0.17319928    5.4562183    5.8688474    11.325066    22.979728 
   38400          192   0.51834367   0.57214238    5.5076602    6.9976396      12.5053    22.912888 
   38500        192.5   0.85633228   0.49666929    3.9036714    11.560486    15.464157    22.848488 
   38600          193   0.52878171   0.68084069    5.5902005    7.1385531    12.728754    22.784057 
   38700        193.5   0.32386611    0.2072535    3.6559546    4.3721926    8.0281472    22.719619 
   38800          194   0.47661172  -0.29332427    3.6392254    6.4342582    10.073484    22.655895 
   38900        194.5   0.45167357  -0.88918777    4.3760775    6.0975932    10.473671    22.592019 
   39000          195   0.44492401   0.75942781     5.611674    6.0064742    11.618148    22.528463 
   39100        195.5   0.51583256 -0.0066418832    3.6907711    6.9637395    10.654511    22.463915 
   39200          196   0.44638866  -0.57603834    4.5236403     6.026247    10.549887    22.398423 
   39300        196.5   0.39542627   0.43766244    5.3435966    5.3382547    10.681851    22.333092 
   39400          197   0.41081767    0.4730457    3.7271567    5.5460386    9.2731952    22.268848 
   39500        197.5   0.30404006  -0.09081213    3.8879677    4.1045408    7.9925085    22.203602 
   39600          198    0.5760394   -1.0983512    3.2072556    7.7765319    10.983787    22.138221 
   39700        198.5   0.48440343   0.41608646    3.5311451    6.5394463    10.070591     22.07294 
   39800          199   0.42687383   0.41831299     5.837737    5.7627967    11.600534    22.008417 
   39900        199.5   0.41024729  -0.70038309    6.3811171    5.5383384    11.919456    21.944206 
   40000          200   0.89256436 -0.093527547    6.2116962    12.049619    18.261315    21.880304 
   40100        200.5   0.75996588    0.4421343    5.7390781    10.259539    15.998617    21.816504 
   40200          201   0.84785274   0.73234836    5.7279827    11.446012    17.173995    21.753612 
   40300        201.5   0.70190178    1.8438039    6.6603236     9.475674    16.135998    21.691045 
   40400          202   0.68248744  -0.26478426    6.4897074    9.2135804    15.703288    21.629712 
   40500        202.5   0.58384631   0.51805303    6.3687297    7.8819252    14.250655    21.568636 
   40600          203   0.49099424   -1.2356621    5.2417675    6.6284223     11.87019    21.508015 
   40700        203.5   0.45983591    0.4198853    3.2330878    6.2077847    9.4408725    21.447322 
   40800          204   0.36563576   0.28332576    6.9610549    4.9360827    11.897138     21.38706 
   40900        204.5   0.56255138   0.32016367    4.5604306    7.5944437    12.154874       21.327 
   41000          205   0.59241755   0.51834148    4.2388715    7.9976369    12.236508    21.267046 
   41100        205.5   0.48280048   0.97585236    4.8667345    6.5178065    11.384541    21.207321 
   41200          206   0.60914477   0.82120518    5.1477643    8.2234543    13.371219    21.148518 
   41300        206.5   0.43619524  -0.62893201    5.0636193    5.8886357    10.952255    21.090148 
   41400          207   0.49822764    1.3125215    7.2046113    6.7260731    13.930684    21.031856 
   41500        207.5    0.7025208  -0.15313063    5.7356449    9.4840308    15.219676    20.973941 
   41600          208   0.78694025    1.8366456    5.6119533    10.623693    16.235647    20.916753 
   41700        208.5   0.59520542   -0.2275342    8.0122438    8.0352732    16.047517    20.861218 
   41800          209   0.85690448   -1.0017391     7.057819     11.56821    18.626029    20.806908 
   41900        209.5    0.4710108    1.5920074    8.7256696    6.3586457    15.084315    20.753592 
   42000          210      0.61391  0.023173596    4.7247674     8.287785    13.012552     20.70053 
   42100        210.5   0.68040116  -0.75437923    5.4715148    9.1854157    14.656931    20.647849 
   42200          211   0.61248833  -0.33309692    8.2982293    8.2685924    16.566822    20.595498 
   42300        211.5   0.67313071   0.41591854    4.5605971    9.0872645    13.647862    20.543153 
   42400          212   0.42039194   0.20757446    8.8924619    5.6752912    14.567753    20.491064 
   42500        212.5   0.71856798   -2.0621862    5.0682561    9.7006677    14.768924    20.439279 
   42600          213   0.51111809    2.9847249    5.9793508    6.9000942    12.879445    20.387207 
   42700        213.5    0.4106085  -0.68630587    6.2992712    5.5432148    11.842486    20.335507 
   42800          214   0.53316589   -1.0363128    4.0486082    7.1977395    11.246348    20.281394 
   42900        214.5   0.48383393   0.35275934    3.0344355     6.531758    9.5661935    20.226623 
   43000          215   0.31902477    1.2448216    4.0177159    4.3068344    8.3245503    20.172676 
   43100        215.5   0.38297391   -1.0947634    2.6884913    5.1701478    7.8586391    20.118143 
   43200          216   0.64586441   -1.1701836    3.9125761    8.7191695    12.631746    20.062994 
   43300        216.5   0.72677135     0.855318    4.1828561    9.8114132    13.994269    20.007864 
   43400          217   0.58047226   0.05813101    5.9612409    7.8363755    13.797616    19.953327 
   43500        217.5    0.5238799   -1.6105254    7.4758408    7.0723786    14.548219     19.89968 
   43600          218   0.62448812    1.0589957    4.7763207    8.4305896     13.20691    19.846699 
   43700        218.5   0.51787164    1.5210058    9.5909761    6.9912672    16.582243    19.793066 
   43800          219   0.60793567   -2.0375722    8.0127487    8.2071315     16.21988    19.739498 
   43900        219.5   0.71883299    1.4387409    5.2307354    9.7042454    14.934981    19.685683 
   44000          220   0.61219987  -0.13451405    5.6713532    8.2646982    13.936051    19.632264 
   44100        220.5   0.61248845   -1.0209277    7.2114852     8.268594    15.480079    19.579521 
   44200          221   0.54214675    1.2343542    5.2631868    7.3189812    12.582168    19.525484 
   44300        221.5   0.50466827   -1.1042569    5.0608821    6.8130217    11.873904     19.47175 
   44400          222   0.37990441    2.9230137    6.5366576    5.1287095    11.665367    19.418009 
   44500        222.5   0.44650856   -1.4363526    5.6958457    6.0278656    11.723711    19.364985 
   44600          223   0.62403419  0.094970513    4.6359776    8.4244615    13.060439    19.311521 
   44700        223.5   0.63037808 -0.033102829    7.1555619     8.510104    15.665666    19.258884 
   44800          224   0.66839563  -0.63801214    3.3223757    9.0233411    12.345717    19.206962 
   44900        224.5   0.53119376   0.60352999    8.1090345    7.1711158     15.28015    19.154756 
   45000          225   0.52330829   -1.5977327    6.3675283    7.0646619     13.43219    19.102465 
   45100        225.5   0.56721674   0.95408173     4.816562    7.6574259    12.473988     19.05033 
   45200          226   0.38894073   0.57876417    8.0582266    5.2506998    13.308926    18.998404 
   45300        226.5   0.66919711  -0.27223133    5.7729017     9.034161    14.807063    18.946548 
   45400          227   0.59671913   0.14587249    6.7217763    8.0557083    14.777485    18.894622 
   45500        227.5   0.55362785     1.952577    10.156772     7.473976    17.630748    18.843407 
   45600          228   0.69389719  -0.25072004    6.9867197     9.367612    16.354332    18.792939 
   45700        228.5   0.69600032  -0.36759035    5.7383259    9.3960043     15.13433    18.743073 
   45800          229   0.22592656  -0.39630528    6.2321788    3.0500086    9.2821874    18.693603 
   45900        229.5   0.37005334    1.4131777    5.6949637    4.9957201    10.690684    18.643897 
   46000          230   0.54414315 -0.036602091    5.0252502    7.3459325    12.371183    18.594237 
   46100        230.5   0.33682481    0.9804438    7.0440072     4.547135    11.591142    18.544591 
   46200          231   0.51622223    1.1208644    5.1217866    6.9690001    12.090787     18.49584 
   46300        231.5    0.5751081    -2.055012    6.7273867    7.7639593    14.491346    18.447642 
   46400          232   0.55624168   0.24068642    8.3772319    7.5092626    15.886495    18.399589 
   46500        232.5   0.57287344    1.3549749    4.2895236    7.7337914    12.023315    18.352434 
   46600          233   0.41386366  -0.41416964    5.1773459    5.5871595    10.764505    18.305825 
   46700        233.5   0.41275253 -0.023986205    5.2470072    5.5721591    10.819166    18.259926 
   46800          234   0.47314515   0.87400294    4.1324212    6.3874596    10.519881    18.214036 
   46900        234.5   0.49284755   -1.1667484    3.0871692    6.6534419    9.7406111    18.167645 
   47000          235   0.36894357    1.0628154    3.7195537    4.9807382    8.7002918    18.119847 
   47100        235.5   0.51433795 -0.037610942    3.3038648    6.9435624    10.247427    18.071478 
   47200          236   0.43708427   -1.9815874    4.9560179    5.9006377    10.856656    18.022686 
   47300        236.5   0.34593832   0.51379339    7.1429919    4.6701674    11.813159    17.973034 
   47400          237   0.37012571   0.71966951    5.6594737    4.9966972    10.656171    17.922755 
   47500        237.5   0.48623512 -0.023259088    4.3211448    6.5641742    10.885319     17.87328 
   47600          238   0.65672477   0.90779933    6.8021703    8.8657844    15.667955    17.824363 
   47700        238.5    0.4561457   -1.0092381    6.8806517     6.157967    13.038619    17.775696 
   47800          239   0.52396328 -0.027574702    4.0958922    7.0735043    11.169396    17.726788 
   47900        239.5   0.55038441   0.50400529    5.9549727    7.4301896    13.385162    17.677568 
   48000          240   0.55923124  -0.53148535    5.5679817    7.5496218    13.117603    17.629389 
   48100        240.5   0.58380421    1.0106637    5.9930971    7.8813568    13.874454    17.582125 
   48200          241   0.68692884  -0.42270709    3.6080153    9.2735393    12.881555    17.535917 
   48300        241.5   0.50081718   -1.3359097    6.1289368    6.7610319    12.889969    17.489714 
   48400          242   0.46596742    3.2992699    7.9933113    6.2905602    14.283871    17.443192 
   48500        242.5   0.61575958 -0.0046968654    8.5681707    8.3127544    16.880925    17.396892 
   48600          243   0.78846095   0.18324682    5.4340567    10.644223     16.07828    17.349881 
   48700        243.5   0.59198833  -0.18817779    6.7405913    7.9918425    14.732434    17.304811 
   48800          244   0.52604953   0.86236997    5.8985613    7.1016687     13.00023    17.260132 
   48900        244.5   0.60024958   0.96731851    6.1049212    8.1033693    14.208291    17.216765 
   49000          245    0.4694636   0.80074447    5.7843193    6.3377586    12.122078    17.174707 
   49100        245.5   0.63165586    1.1602649    5.7685092    8.5273541    14.295863    17.134285 
   49200          246   0.26782062    1.2781751    6.1727868    3.6155783    9.7883651    17.095411 
   49300        246.5   0.35794375    1.2884496    4.9264212    4.8322407    9.7586619     17.05738 
   49400          247   0.29763606   0.10702683    2.7930454    4.0180868    6.8111321    17.020525 
   49500        247.5   0.36884219    2.1353916    4.9306005    4.9793696    9.9099701    16.984286 
   49600          248   0.38908631    0.5806543     3.616511    5.2526651    8.8691761     16.94975 
   49700        248.5   0.61440247     0.160799    4.2865134    8.2944334    12.580947    16.915398 
   49800          249   0.72130743    1.9083885    8.9792386    9.7376503    18.716889    16.881817 
   49900        249.5   0.69162422   0.21385228     5.729593     9.336927     15.06652    16.850007 
   50000          250   0.67828585    1.2901093    7.1158113    9.1568589     16.27267    16.819198 
   50100        250.5    0.7484586    1.3975791    8.2470491    10.104191     18.35124    16.790071 
   50200          251   0.88543355    2.0482343    7.3155219    11.953353    19.268875    16.762278 
   50300        251.5   0.85318717    1.3416179    7.3227788    11.518027    18.840806    16.736452 
   50400          252   0.74337011  -0.79679115    6.9982167    10.035496    17.033713    16.712791 
   50500        252.5   0.71618978   0.58871587    5.5244717     9.668562    15.193034    16.689511 
   50600          253   0.54456639    1.2128517    6.8199637    7.3516463     14.17161    16.666223 
   50700        253.5   0.52517795   0.26673774     5.186257    7.0899024    12.276159    16.643655 
   50800          254   0.54383158   0.43843392    5.5302033    7.3417263     12.87193    16.621499 
   50900        254.5   0.52880477   0.92825644    4.1925891    7.1388643    11.331453    16.599575 
   51000          255   0.72390374    1.4491112    3.9387254    9.7727005    13.711426    16.577718 
   51100        255.5   0.39105767  -0.46227489    5.8685561    5.2792785    11.147835    16.556155 
   51200          256   0.62918646   0.46299352    6.3172811    8.4940172    14.811298    16.535031 
   51300        256.5   0.63536737    1.8917175    7.8809238    8.5774595    16.458383    16.514224 
   51400          257   0.47389824  -0.46403524    6.0716974    6.3976262    12.469324     16.49447 
   51500        257.5   0.32377611    1.6045933     6.471929    4.3709774    10.842906    16.473989 
   51600          258   0.33302229   0.12792063    6.6898127     4.495801    11.185614    16.452865 
   51700        258.5   0.35230951   -2.2468142    5.9575101    4.7561784    10.713689     16.43244 
   51800          259   0.60404728    2.2994853    5.0397383    8.1546382    13.194377    16.411634 
   51900        259.5   0.38378502    2.0374273    6.0405823    5.1810977     11.22168    16.391589 
   52000          260   0.57139084  -0.99623503    4.5303531    7.7137763    12.244129    16.371827 
   52100        260.5   0.40050475   0.60829274    7.0916481    5.4068142    12.498462    16.351334 
   52200          261   0.58384673   0.70948703    4.8294615    7.8819309    12.711392    16.330278 
   52300        261.5   0.41278645    1.6918596    6.4834088     5.572617    12.056026    16.308528 
   52400          262   0.76673095   -1.0486206    5.3508273    10.350868    15.701695    16.287332 
   52500        262.5   0.74913571   0.78368101    4.4497649    10.113332    14.563097    16.265822 
   52600          263   0.51437076    3.0387431    5.0554423    6.9440052    11.999447    16.244525 
   52700        263.5    0.4927449  -0.29379497    4.7216844    6.6520562    11.373741    16.223614 
   52800          264   0.54127152  -0.68530925    6.3691834    7.3071655    13.676349    16.202233 
   52900        264.5   0.50591262  0.081777412    7.5364537    6.8298203    14.366274    16.180062 
   53000          265   0.76233505   0.83251778    3.7101368    10.291523     14.00166    16.158998 
   53100        265.5   0.53914659    1.8913437    7.0479678     7.278479    14.326447    16.138337 
   53200          266   0.42308856    2.0219169    6.4217603    5.7116956    12.133456    16.118326 
   53300        266.5   0.56814847   0.69684646    5.1320895    7.6700044    12.802094    16.098867 
   53400          267   0.59875235   -1.1215692    4.9342955    8.0831567    13.017452     16.07967 
   53500        267.5   0.54185844    0.2336534    5.2182509    7.3150889     12.53334      16.0605 
   53600          268   0.61339794    2.5471938     6.296562    8.2808722    14.577434    16.041843 
   53700        268.5   0.66799222   -1.5415376    6.8219114    9.0178949    15.839806    16.024811 
   53800          269   0.87607307   -2.6355837    6.1022955    11.826986    17.929282    16.007055 
   53900        269.5   0.74578897    3.0822682    6.6547629    10.068151    16.722914    15.988614 
   54000          270   0.80980897     1.936161    5.6509101    10.932421    16.583331    15.970057 
   54100        270.5   0.59580992    -1.128414    8.7930647     8.043434    16.836499    15.952036 
   54200          271   0.70232506    1.3313602    10.113504    9.4813884    19.594892    15.933973 
   54300        271.5   0.55874532  0.092898774    11.951542    7.5430618    19.494604    15.916319 
   54400          272   0.59955589    1.1631072    5.6035359    8.0940045     13.69754    15.899194 
   54500        272.5   0.69968281  -0.68342916    7.7923296    9.4457179    17.238048    15.883025 
   54600          273   0.82884692    1.5115899    6.5175702    11.189433    17.707004    15.865896 
   54700        273.5   0.81337816   0.93550621    5.9013267    10.980605    16.881932    15.848401 
   54800          274   0.63012216    2.4422576    9.8953964    8.5066491    18.402046    15.831826 
   54900        274.5   0.54484558    1.1147351    9.3640702    7.3554153    16.719486    15.816905 
   55000          275   0.85045099   0.74963954    5.2797845    11.481088    16.760873    15.802748 
   55100        275.5   0.68975825    1.0656413    3.9506843    9.3117364    13.262421     15.78892 
   55200          276   0.48742698   -0.7386749    6.9066985    6.5802642    13.486963    15.776197 
   55300        276.5   0.50444847    2.0802042    5.4219827    6.8100543    12.232037    15.763634 
   55400          277   0.58265424  -0.79073702    10.877871    7.8658322    18.743704    15.751061 
   55500        277.5   0.64466915   0.33277047    7.5646565    8.7030335     16.26769    15.738342 
   55600          278   0.74504491  -0.21972123    6.1597857    10.058106    16.217892    15.726026 
   55700        278.5   0.73471411    1.7841892    5.9301216    9.9186405    15.848762    15.714577 
   55800          279   0.61074681   -1.7461497    7.1067424     8.245082    15.351824    15.704523 
   55900        279.5   0.64209119    2.5696854    6.5865617     8.668231    15.254793    15.694375 
   56000          280   0.54769802    2.0332757    7.7359127    7.3939232    15.129836    15.684312 
   56100        280.5   0.70517662  -0.33456525      3.84162    9.5198844    13.361504    15.674428 
   56200          281   0.42389946   0.47857318    4.5980762    5.7226427    10.320719     15.66477 
   56300        281.5   0.24301863   0.29803365    5.4259321    3.2807516    8.7066837    15.655101 
   56400          282   0.41768789  -0.44385904    6.5469608    5.6387865    12.185747    15.645453 
   56500        282.5   0.78490424    1.3763132    3.8376666    10.596207    14.433874    15.635535 
   56600          283   0.76354218   0.72659439    5.4299889    10.307819    15.737808    15.626096 
   56700        283.5   0.63935873    2.7501447     6.007114    8.6313429    14.638457    15.617964 
   56800          284   0.70227993    -1.420461    4.9508207    9.4807791      14.4316    15.610318 
   56900        284.5   0.45686116   -1.1971253    6.1395631    6.1676256    12.307189    15.602653 
   57000          285   0.62344687    0.4938347    8.8485302    8.4165327    17.265063    15.595243 
   57100        285.5    0.6936501    1.1709291    5.7573282    9.3642764    15.121605    15.587785 
   57200          286   0.62022165  -0.52018622    6.6067878    8.3729922     14.97978    15.580945 
   57300        286.5   0.48173348    2.3903571     11.55082     6.503402    18.054222    15.573337 
   57400          287   0.61416749   -1.4014353    8.1033791    8.2912611     16.39464    15.565647 
   57500        287.5   0.54223636    1.9686229    9.0618108    7.3201909    16.382002    15.557499 
   57600          288   0.54551793    3.8061919    8.3458005    7.3644921    15.710293    15.549715 
   57700        288.5   0.50552682   -3.0137409    6.7882921    6.8246121    13.612904    15.543168 
   57800          289   0.35906238   0.68496327    5.6678079    4.8473421     10.51515    15.536344 
   57900        289.5   0.52868419   0.98080953     4.749976    7.1372366    11.887213    15.529092 
   58000          290    0.7138651  -0.79726561    4.3778357    9.6371789    14.015015    15.521266 
   58100        290.5   0.44568579    2.2142286    6.5821812    6.0167582    12.598939    15.513278 
   58200          291    0.4069115 -0.054369035    5.5326111    5.4933053    11.025916    15.506178 
   58300        291.5   0.58554774    1.2286572    5.5669811    7.9048945    13.471876    15.498664 
   58400          292   0.56380963    1.6225912    7.7037484      7.61143    15.315178    15.491851 
   58500        292.5   0.42049156     1.131681    5.5606176     5.676636    11.237254     15.48586 
   58600          293   0.34378866   -1.9864971     5.963509    4.6411469    10.604656    15.480001 
   58700        293.5     0.282053   0.51426373    5.3005347    3.8077156    9.1082502    15.474272 
   58800          294   0.39971076    2.0104841    5.3357456    5.3960953    10.731841    15.467978 
   58900        294.5   0.53571192   -1.2874655     4.569343     7.232111    11.801454    15.461493 
   59000          295   0.47021854    1.5507793     3.388854    6.3479503    9.7368043    15.454419 
   59100        295.5   0.51986941    1.1737499    4.8942573     7.018237    11.912494    15.448035 
   59200          296   0.53412605    2.0254018    8.3371621    7.2107017    15.547864    15.443035 
   59300        296.5   0.54427865   0.74239153    5.4250748    7.3477618    12.772837    15.440432 
   59400          297   0.56632714    2.3246715    5.0780384    7.6454164    12.723455    15.438384 
   59500        297.5   0.59525187   0.33574907    5.8205107    8.0359002    13.856411    15.436322 
   59600          298    0.5047393    0.1757978    4.0153321    6.8139806    10.829313    15.434667 
   59700        298.5   0.73394538  -0.22347405    4.7192915    9.9082626    14.627554    15.434162 
   59800          299   0.58018557    1.0461292    4.3226437    7.8325052    12.155149    15.432769 
   59900        299.5    0.7209472    2.6156967    6.7360691    9.7327872    16.468856     15.43076 
   60000          300   0.62251289    2.7850239    6.4678364     8.403924     14.87176    15.430453 
   60100        300.5    0.5208177   -1.9147729     7.862627    7.0310389    14.893666    15.432222 
   60200          301   0.80679024  -0.12424873    5.6440965    10.891668    16.535765    15.433766 
   60300        301.5    0.5946135 -0.086933438    8.2733983    8.0272823    16.300681    15.435538 
   60400          302   0.69113859    2.2824025    6.1062571     9.330371    15.436628    15.436832 
   60500        302.5   0.48760843    -1.554403    7.0078011    6.5827138    13.590515    15.438858 
   60600          303   0.73105587   0.43964474    5.9005786    9.8692543    15.769833    15.439055 
   60700        303.5   0.52351296    1.8720033    11.773974    7.0674249    18.841399    15.439203 
   60800          304   0.68118947  -0.86290766    8.7003255    9.1960578    17.896383    15.439977 
   60900        304.5   0.58048932    0.7837591    8.1691578    7.8366058    16.005764    15.440914 
   61000          305   0.47944196  -0.98598109    8.6204354    6.4724665    15.092902    15.442666 
   61100        305.5    0.3895422   -1.2324051    6.4386007    5.2588197     11.69742    15.443704 
   61200          306   0.65942018     2.114547    4.0483293    8.9021725    12.950502    15.444115 
   61300        306.5   0.73206083   -0.6317402    6.3799589    9.8828212     16.26278    15.444344 
   61400          307   0.52081942    2.4976635    7.8359197    7.0310621    14.866982    15.444055 
   61500        307.5   0.58931599    1.5077805    6.0691082    7.9557658    14.024874    15.444446 
   61600          308   0.46002422   -1.8681598    11.289228    6.2103269    17.499555    15.444713 
   61700        308.5    1.0056997   0.49459376    5.0528706    13.576945    18.629816    15.444792 
   61800          309   0.65287868   -1.4306875    5.3312202    8.8138622    14.145082    15.444392 
   61900        309.5   0.83396919    2.7038233    5.7395721    11.258584    16.998156    15.444431 
   62000          310   0.65505264   -3.1738542    6.1349911    8.8432107    14.978202     15.44524 
   62100        310.5   0.65563988    2.2697413    5.8126846    8.8511384    14.663823    15.446135 
   62200          311   0.66804564    2.1331351    5.3813752    9.0186161    14.399991    15.447341 
   62300        311.5   0.44438105    1.4326971    8.0884489    5.9991441    14.087593    15.449021 
   62400          312   0.61535121  -0.95159556    5.8677117    8.3072413    14.174953    15.452133 
   62500        312.5   0.76800799   0.54666246    3.6243703    10.368108    13.992478    15.455616 
   62600          313   0.60473734    1.2320881    7.0217672    8.1639541    15.185721    15.459001 
   62700        313.5   0.55819732    1.4964846    4.9571111    7.5356639    12.492775    15.462961 
   62800          314    0.5211301 -0.059122042    3.7074524    7.0352564    10.742709    15.468128 
   62900        314.5    0.3884267   -1.1305656    4.9761311    5.2437605    10.219892    15.472815 
   63000          315   0.54611945    1.5736072    4.8630174    7.3726126     12.23563    15.476797 
   63100        315.5   0.70040776   0.51079045    4.4274448    9.4555048     13.88295    15.481506 
   63200          316   0.55785929  -0.38690458    5.1434583    7.5311004    12.674559    15.486697 
   63300        316.5    0.4456832    2.3802026    2.6243289    6.0167232    8.6410521     15.49066 
   63400          317   0.40881192   0.76587673    6.0635907    5.5189609    11.582552    15.495011 
   63500        317.5   0.29722984  -0.20646375    6.4203385    4.0126029    10.432941    15.498867 
   63600          318   0.56822125    1.1368826    3.9511886    7.6709869    11.622175    15.502104 
   63700        318.5   0.79132732   0.97951956    3.9497557    10.682919    14.632675    15.505491 
   63800          319   0.75846312   -1.5912916    6.4069458    10.239252    16.646198     15.50899 
   63900        319.5     0.736151      3.15749    6.7631461    9.9380385    16.701185    15.512226 
   64000          320   0.58672244   -1.9441006    8.1548072     7.920753     16.07556    15.515835 
   64100        320.5   0.52931247    3.3249508    10.025533    7.1457184    17.171251    15.519625 
   64200          321   0.83789758    1.0068105    6.0460054    11.311617    17.357623    15.524399 
   64300        321.5    1.1653396   -1.4063748    4.8729438    15.732085    20.605029    15.529729 
   64400          322   0.87728701    2.8702482    6.0736303    11.843375    17.917005    15.534731 
   64500        322.5   0.62835672    0.3072956    7.2245877    8.4828157    15.707403    15.540339 
   64600          323   0.68526914   -1.2732532    6.3906513    9.2511333    15.641785    15.545437 
   64700        323.5   0.54739924  0.082853176    9.2937309    7.3898897    16.683621    15.549794 
   64800          324   0.57710927    1.5284805    7.6823825    7.7909752    15.473358    15.553669 
   64900        324.5   0.64977307 -0.017176523    4.5753713    8.7719365    13.347308    15.557269 
   65000          325   0.33607968    1.1832794    10.756536    4.5370756    15.293612     15.56042 
   65100        325.5   0.53271899   0.37215611    6.7747514    7.1917063    13.966458    15.563542 
   65200          326   0.66121882    -1.230227    7.9355138    8.9264541    16.861968    15.566114 
   65300        326.5   0.59213278   0.93931381    7.4034898    7.9937925    15.397282    15.568254 
   65400          327   0.40840257   0.97900264    6.5814931    5.5134347    12.094928    15.570587 
   65500        327.5   0.50027539   0.89349026    7.7942854    6.7537177    14.548003     15.57316 
   65600          328   0.60953832   -0.7729031    7.1393954    8.2287673    15.368163    15.576464 
   65700        328.5   0.65736245    2.1975758     8.110253    8.8743931    16.984646    15.579195 
   65800          329   0.79445118   -2.8537335    8.7472742    10.725091    19.472365    15.581909 
   65900        329.5   0.67030741   0.41138347    7.5537812      9.04915    16.602931    15.584109 
   66000          330   0.59911486     2.237629    8.1212239    8.0880506    16.209274    15.585839 
   66100        330.5   0.53683655   -1.5561848     6.588347    7.2472934     13.83564    15.588614 
   66200          331   0.64506035   0.92186911    4.3290936    8.7083147    13.037408    15.591665 
   66300        331.5   0.63574784    1.0393573    6.0251785    8.5825958    14.607774    15.595213 
   66400          332   0.64515923  -0.73312761    5.7311987    8.7096496    14.440848    15.599275 
   66500        332.5    0.6586033     1.830338    4.3654181    8.8911445    13.256563    15.603548 
   66600          333   0.55197178    0.1666803    5.4331806     7.451619      12.8848    15.608423 
   66700        333.5   0.76940911  -0.13875961    3.9856022    10.387023    14.372625    15.613218 
   66800          334   0.54527424   0.67575761    6.3822881    7.3612022     13.74349    15.617581 
   66900        334.5   0.82776392    1.0825946    8.7950697    11.174813    19.969883    15.621768 
   67000          335   0.90049016    1.3687555    5.9573838    12.156617    18.114001    15.626091 
   67100        335.5    1.0663178  0.066449945    5.8173008    14.395291    20.212592    15.631433 
   67200          336   0.80257671    1.2919368    7.0116317    10.834786    17.846417    15.635969 
   67300        336.5   0.38673127  -0.56162522    7.8296968    5.2208722    13.050569    15.640413 
   67400          337   0.54500892  -0.13227697    7.3536097    7.3576204     14.71123    15.644299 
   67500        337.5   0.50463256    1.6096553     4.963595    6.8125396    11.776135    15.648055 
   67600          338   0.50524371   0.30850668    5.5729958      6.82079    12.393786    15.652281 
   67700        338.5   0.50723884   -0.5512957    5.9450282    6.8477244    12.792753    15.655086 
   67800          339   0.56684679   -1.0412605    7.0989623    7.6524316    14.751394    15.657249 
   67900        339.5   0.40338703    1.7080441    4.5388537    5.4457249    9.9845786    15.659729 
   68000          340   0.58036715   0.62820654    5.8467378    7.8349566    13.681694    15.661544 
   68100        340.5   0.42341154  -0.98295136    8.5069194    5.7160558    14.222975    15.663022 
   68200          341   0.38244053     1.731494    7.2593862    5.1629472    12.422333    15.664283 
   68300        341.5   0.59304746   0.92095294    4.8021852    8.0061407    12.808326    15.665741 
   68400          342   0.75699326  -0.69338793    6.3372809    10.219409     16.55669    15.667089 
   68500        342.5   0.58090881    1.8868652    5.9995375    7.8422689    13.841806     15.66814 
   68600          343   0.71441648   0.26438368    6.1867189    9.6446225    15.831341    15.668927 
   68700        343.5   0.50763652    0.6471904    5.8140182     6.853093    12.667111    15.668723 
   68800          344   0.51332792   0.19401651    6.9415095     6.929927    13.871437    15.668857 
   68900        344.5   0.23103319    2.8189275    5.9002018     3.118948    9.0191498    15.669183 
   69000          345   0.44857787   0.29048717      7.71651    6.0558012    13.772311    15.669872 
   69100        345.5   0.40582407   -1.9177024    5.4498318    5.4786249    10.928457    15.670306 
   69200          346    0.4196244   0.88107301    3.3480105    5.6649294      9.01294     15.66952 
   69300        346.5    0.3696575  -0.11750506    5.1563425    4.9903763    10.146719     15.66798 
   69400          347   0.47972377   -1.6410223    3.3931654    6.4762708    9.8694362    15.665631 
   69500        347.5   0.53224838    1.1628428    6.7860478    7.1853532    13.971401    15.662482 
   69600          348   0.66453568   0.57215159     4.321384    8.9712317    13.292616    15.659391 
   69700        348.5   0.56208504   0.50615145    6.3292632    7.5881481    13.917411    15.656244 
   69800          349   0.60311279   0.32685003    6.3956604    8.1420227    14.537683    15.652977 
   69900        349.5   0.85783316   0.10157809    4.5828167    11.580748    16.163564    15.650342 
   70000          350   0.57917747   0.96513242     8.298119    7.8188958    16.117015    15.648267 
   70100        350.5   0.85580998   0.54852569    5.1146208    11.553435    16.668056    15.646394 
   70200          351   0.51207269   0.73296382    6.0127488    6.9129813     12.92573    15.644281 
   70300        351.5   0.48612594     1.020058    4.5463518    6.5627002    11.109052    15.642057 
   70400          352   0.58132616  -0.48296178    4.2936803    7.8479031    12.141583    15.639767 
   70500        352.5   0.40434395  -0.10888669    5.8844332    5.4586433    11.343076    15.637466 
   70600          353   0.43141532   -1.0297853    5.6335802    5.8241068    11.457687    15.635034 
   70700        353.5   0.26778341  -0.94725036    4.8771199     3.615076     8.492196    15.632626 
   70800          354   0.50966152    2.3344678    4.8039555    6.8804305    11.684386    15.629804 
   70900        354.5   0.50505324  -0.75266575    6.0872706    6.8182187    12.905489    15.627206 
   71000          355   0.47076931    2.1406471    4.5369059    6.3553857    10.892292    15.624535 
   71100        355.5   0.52922986  -0.14377544    4.0885286    7.1446031    11.233132    15.622246 
   71200          356   0.35653297   0.93428492    9.7616614    4.8131951    14.574856    15.619889 
   71300        356.5   0.62756525   0.78028561     5.090378    8.4721309    13.562509    15.617414 
   71400          357   0.47270911   0.26032219    5.0155206     6.381573    11.397094     15.61533 
   71500        357.5   0.57817611    0.8738234    4.5488366    7.8053775    12.354214    15.613476 
   71600          358   0.41643112    2.5655794    4.9049281    5.6218201    10.526748     15.61278 
   71700        358.5   0.46499267   0.34637695    5.5602205    6.2774011    11.837622    15.612855 
   71800          359   0.66420835   0.17836004     4.398319    8.9668127    13.365132    15.612265 
   71900        359.5   0.39306285   -2.0216179    5.4090815    5.3063485     10.71543    15.612523 
   72000          360   0.56455887 -0.098914772    3.3691591    7.6215447    10.990704     15.61071 
   72100        360.5   0.45385103   -2.0425723    6.8546945    6.1269889    12.981683    15.607972 
   72200          361   0.45290963    2.0845854    8.1725893      6.11428    14.286869    15.605144 
   72300        361.5    0.4826557 -0.027840131    3.5225988     6.515852    10.038451    15.602922 
   72400          362   0.36438613    1.0430012     7.804142    4.9192128    12.723355    15.600238 
   72500        362.5   0.60179642  -0.34717646    4.5995114    8.1242517    12.723763     15.59824 
   72600          363   0.44276965    2.1613499    3.6830879    5.9773903    9.6604782    15.595355 
   72700        363.5   0.53297841  -0.97152493    5.0956175    7.1952085    12.290826    15.592553 
   72800          364   0.47932777   0.47788897    6.8600368     6.470925    13.330962    15.588995 
   72900        364.5   0.61245864    3.6905932    8.2363955    8.2681916    16.504587    15.585449 
   73000          365   0.84550333   -0.9695506    5.1400097    11.414295    16.554305    15.581862 
   73100        365.5   0.54333532 0.0021917182     9.445155    7.3350269    16.780182    15.577859 
   73200          366   0.51240004    1.2118444     5.227105    6.9174005    12.144505    15.573011 
   73300        366.5   0.60390962   -1.3365407    5.3072514    8.1527799    13.460031    15.567951 
   73400          367    0.4038184    1.2893368    4.6833031    5.4515485    10.134852    15.562394 
   73500        367.5   0.58107045    2.4616279    4.0799344    7.8444511    11.924385     15.55695 
   73600          368   0.27283342  0.074865533    7.3183366    3.6832512    11.001588    15.552201 
   73700        368.5    0.5822299   0.54330386    5.0637892    7.8601036    12.923893    15.546875 
   73800          369   0.44034799   0.10312883    5.8030532    5.9446978    11.747751    15.540853 
   73900        369.5   0.55163903  -0.35221617    5.1229707    7.4471269    12.570098    15.534856 
   74000          370   0.44283929  -0.58819789    6.7269321    5.9783304    12.705263     15.52917 
   74100        370.5   0.64463648    2.1243331    3.9628963    8.7025925    12.665489    15.523363 
   74200          371   0.57406715  -0.16076595    5.5052605    7.7499065    13.255167     15.51759 
   74300        371.5   0.45126071   0.48737214    6.2394463    6.0920195    12.331466     15.51138 
   74400          372    0.4180644    1.3065332    5.0532596    5.6438694    10.697129    15.505181 
   74500        372.5   0.50734714   -1.1596505    6.0246918    6.8491863    12.873878    15.499118 
   74600          373   0.46540958     2.077049    5.4283872    6.2830293    11.711417    15.492949 
   74700        373.5   0.52191731   -1.0432603    4.4262551    7.0458837    11.472139    15.487069 
   74800          374   0.46633014   -1.3046399    3.9932859    6.2954569    10.288743     15.48151 
   74900        374.5   0.39313613    2.6127776    4.8485714    5.3073378    10.155909    15.476306 
   75000          375   0.81250361  -0.32653115    3.9643171    10.968799    14.933116    15.471858 
   75100        375.5   0.72199489   0.93559462    5.2334855     9.746931    14.980416    15.468029 
   75200          376   0.51411243 -0.038767017     9.497061    6.9405178    16.437579    15.464398 
   75300        376.5   0.73200355   0.70213918    9.2858565     9.882048    19.167904    15.460258 
   75400          377   0.62109924   0.52986357     12.16426    8.3848398    20.549099     15.45593 
   75500        377.5   0.74254943  -0.61141652    7.1446414    10.024417    17.169059    15.449961 
   75600          378   0.84657332    1.1667308    8.5282313     11.42874    19.956971    15.444468 
   75700        378.5    1.0383845   0.86086376     9.754814    14.018191    23.773005    15.440243 
   75800          379   0.76629816   -1.0771027    10.335102    10.345025    20.680127    15.435888 
   75900        379.5   0.82613265   -1.1388657    7.6474523    11.152791    18.800243    15.431929 
   76000          380   0.72103774    1.0347539    7.1911687    9.7340095    16.925178    15.427979 
   76100        380.5   0.67235136   0.97974378     5.662879    9.0767433    14.739622    15.424883 
   76200          381   0.55351325     2.595803    5.7407056    7.4724289    13.213134    15.422818 
   76300        381.5   0.91299982  0.081861484    3.9689092    12.325498    16.294407    15.421625 
   76400          382   0.56135232   -2.7735317    9.0976379    7.5782564    16.675894    15.419485 
   76500        382.5   0.55390262    2.1891135    7.8170645    7.4776853     15.29475    15.417078 
   76600          383    0.6742391   0.29631561    7.5517274    9.1022278    16.653955     15.41496 
   76700        383.5   0.74720471   0.78698584     7.641134    10.087264    17.728398    15.412511 
   76800          384   0.56327413   0.93611514    5.7825817    7.6042007    13.386782    15.410777 
   76900        384.5    0.4651236    2.1456784    6.5037256    6.2791687    12.782894    15.408981 
   77000          385   0.56460917    1.7616508    3.3897023    7.6222238    11.011926    15.407925 
   77100        385.5   0.41039986   0.57082841    6.4295867    5.5403982    11.969985    15.408193 
   77200          386   0.45715528   0.34786074    4.8920661    6.1715963    11.063662    15.408559 
   77300        386.5   0.57774393   -1.6765318    6.5975372    7.7995431     14.39708    15.408588 
   77400          387   0.68126738    1.8136157    7.8113575    9.1971096    17.008467    15.407409 
   77500        387.5   0.60732451   -1.1284354    6.2030057    8.1988809    14.401887    15.406683 
   77600          388   0.60876756    2.3324021    6.5640041     8.218362    14.782366    15.406026 
   77700        388.5   0.40757639   0.72436573    4.6882654    5.5022812    10.190547    15.406276 
   77800          389   0.54241408   0.68944115    4.2735901    7.3225901     11.59618    15.406799 
   77900        389.5   0.45912073     1.592435    4.2775845    6.1981299    10.475714    15.407392 
   78000          390   0.41411291 -0.015193075     6.015636    5.5905243     11.60616    15.408231 
   78100        390.5   0.49679244   0.26465345     3.791011    6.7066979    10.497709    15.409127 
   78200          391    0.5352854    1.0029213    7.5670931    7.2263529    14.793446    15.409663 
   78300        391.5   0.44121852   -1.2537486    7.6153813      5.95645    13.571831    15.410188 
   78400          392   0.55488623    1.2446932    5.1103347    7.4909642    12.601299    15.410907 
   78500        392.5   0.54845018     1.984551    5.3379784    7.4040775    12.742056    15.412199 
   78600          393    0.4496659   -1.7141519    6.1053902    6.0704896     12.17588     15.41426 
   78700        393.5    0.4965327    1.4445035    5.6338583    6.7031915     12.33705    15.416775 
   78800          394   0.58181117    1.4473857    5.6513222    7.8544508    13.505773    15.419483 
   78900        394.5   0.35973033    0.2546646    7.1032169    4.8563595    11.959576    15.422301 
   79000          395   0.48570757  -0.42924095    5.9838665    6.5570522    12.540919     15.42505 
   79100        395.5   0.52887735    2.2588158    6.2776411    7.1398442    13.417485    15.427734 
   79200          396    0.5074005   -1.7102587    4.3844786    6.8499067    11.234385    15.430956 
   79300        396.5    0.5490302    2.9343435    4.7237378    7.4119077    12.135646    15.434417 
   79400          397   0.50659881   -1.5677994    4.3272229    6.8390839    11.166307    15.438792 
   79500        397.5   0.78627277    1.6261982    6.9359225    10.614682    17.550605     15.44265 
   79600          398   0.42263516   0.66415545     8.041683    5.7055747    13.747258    15.446574 
   79700        398.5   0.61067721    -1.950464    6.9785027    8.2441423    15.222645    15.450997 
   79800          399    0.6502867   0.73624052    3.3834642    8.7788705    12.162335    15.454971 
   79900        399.5   0.43480639   0.71278238    4.7502639    5.8698863     10.62015       15.458 
   80000          400   0.52702644  -0.77787932     4.349508    7.1148569    11.464365     15.46056 
   80100        400.5   0.49187468   0.85631062    5.7539092    6.6403081    12.394217    15.463504 
   80200          401   0.40147481     1.444505    4.9816395    5.4199099    10.401549    15.466229 
   80300        401.5    0.5374939   -1.3696368    4.3280078    7.2561677    11.584175    15.468547 
   80400          402   0.52847496    1.8504519    7.1333711    7.1344119    14.267783    15.470571 
   80500        402.5   0.51589971    1.1365038    6.8765918     6.964646    13.841238    15.472996 
   80600          403   0.74504243  -0.70781082    3.1425091    10.058073    13.200582    15.475091 
   80700        403.5   0.65489272   0.36587918     6.568932    8.8410517    15.409984    15.476095 
   80800          404   0.76815695   -1.5790456    6.9379356    10.370119    17.308054    15.478038 
   80900        404.5   0.40001299   0.68310825    8.7351165    5.4001753    14.135292    15.479815 
   81000          405   0.64559064    1.4574187    6.1539735    8.7154737    14.869447    15.481398 
   81100        405.5    0.7110448   0.81202415    3.3781032    9.5991048    12.977208    15.482379 
   81200          406   0.27796626   -1.2733761    6.6348353    3.7525445     10.38738    15.483729 
   81300        406.5   0.44232302   0.94428746    3.9952299    5.9713608    9.9665907    15.484699 
   81400          407    0.5229821   0.45912265    4.2745863    7.0602583    11.334845    15.485276 
   81500        407.5   0.56587124 -0.067865655    2.6886157    7.6392618    10.327877    15.485785 
   81600          408   0.65123396  -0.63759871    3.6582488    8.7916585    12.449907    15.486214 
   81700        408.5   0.40485216    1.0696391    6.9563066    5.4655041    12.421811    15.486398 
   81800          409   0.57369751   -2.0925998    6.8319569    7.7449164    14.576873    15.486192 
   81900        409.5   0.49561885    1.3718035    3.6472734    6.6908545    10.338128    15.483958 
   82000          410   0.65392871   0.80392262    2.2955927    8.8280376     11.12363    15.482183 
   82100        410.5   0.61594369    0.5741867    4.2659064    8.3152398    12.581146    15.481384 
   82200          411   0.38341411    1.5775881    5.0459367    5.1760905    10.222027    15.481294 
   82300        411.5   0.39293892  -0.31138059    7.6846466    5.3046754    12.989322    15.480856 
   82400          412   0.72074048   0.20295559    6.5910472    9.7299965    16.321044    15.480229 
   82500        412.5   0.79636114    1.9431859    5.4243491    10.750875    16.175225    15.479274 
   82600          413   0.61706625   0.19352552    7.2937545    8.3303944    15.624149    15.478499 
   82700        413.5   0.58104502   0.85018689    9.8836749    7.8441078    17.727783    15.477814 
   82800          414   0.62612224  -0.37311418    9.0670989    8.4526502    17.519749    15.477021 
   82900        414.5    1.0165135   0.82780697    5.4760241    13.722932    19.198956    15.476319 
   83000          415   0.86602428    1.4965866      5.92512    11.691328    17.616448    15.475821 
   83100        415.5    1.0158741   -1.2420081    6.6595128    13.714301    20.373814     15.47557 
   83200          416   0.52562643   -0.7678099    13.411572    7.0959568    20.507528    15.475545 
   83300        416.5    1.0122845   0.53637551    5.2716491    13.665841     18.93749    15.475954 
   83400          417   0.93932297    1.2116167    5.8574103     12.68086     18.53827    15.477247 
   83500        417.5   0.58174486     4.343999    8.0043789    7.8535556    15.857935    15.479987 
   83600          418     0.958528   0.67074566    4.9674275    12.940128    17.907556    15.487011 
   83700        418.5   0.83262785  -0.81208976    5.3004567    11.240476    16.540933    15.495645 
   83800          419   0.65037241   0.85802402    5.2951338    8.7800275    14.075161     15.50424 
   83900        419.5   0.63350224   0.14183906    7.5978953    8.5522803    16.150176     15.51263 
   84000          420   0.68263432  -0.48313265    7.4582755    9.2155633    16.673839    15.521233 
   84100        420.5   0.77961172  -0.54772381     6.471726    10.524758    16.996484    15.530335 
   84200          421   0.49053007    2.4711889    9.5267091    6.6221559    16.148865     15.53989 
   84300        421.5   0.70690211    0.4689841    4.3953945    9.5431785    13.938573    15.549364 
   84400          422   0.48669982    2.8121644    8.4829993    6.5704475    15.053447    15.559093 
   84500        422.5   0.77881666  -0.96085137    6.1314407    10.514025    16.645466    15.569105 
   84600          423   0.59466045  -0.43400451    5.1656097    8.0279161    13.193526    15.579454 
   84700        423.5   0.41421703    1.9903575    5.2290279    5.5919299    10.820958    15.590283 
   84800          424   0.78220121   0.68461029    5.2486202    10.559716    15.808337    15.600894 
   84900        424.5   0.60081849   0.12792162    8.9425054    8.1110496    17.053555    15.611864 
   85000          425   0.79379423   -1.5435419    8.3455577    10.716222     19.06178    15.623493 
   85100        425.5   0.77474909    1.0028669    9.3095528    10.459113    19.768665    15.634341 
   85200          426   0.57822042   0.47145421    6.1824936    7.8059757    13.988469     15.64576 
   85300        426.5   0.54900658  -0.25262804    6.7112305    7.4115889    14.122819    15.657304 
   85400          427   0.60847492   0.58911723    3.4389267    8.2144114    11.653338    15.668417 
   85500        427.5   0.39869059   -1.2549233    3.9333205    5.3823229    9.3156434    15.679077 
   85600          428   0.47052327    2.5915503    6.3098615    6.3520642    12.661926    15.688849 
   85700        428.5   0.55229953    1.6314481    3.1495857    7.4560437    10.605629    15.698543 
   85800          429   0.45454304  -0.15720966    5.8519875     6.136331    11.988319    15.708613 
   85900        429.5   0.51267505   -1.7344741    5.7932518    6.9211132    12.714365    15.718934 
   86000          430   0.54717754    2.3893605    4.0845805    7.3868968    11.471477    15.728324 
   86100        430.5   0.43748314    1.7581827     9.339604    5.9060224    15.245626     15.73724 
   86200          431   0.65392545   -1.1670784    6.3144969    8.8279936    15.142491    15.746955 
   86300        431.5   0.80303269    3.4722936    7.9270543    10.840941    18.767996    15.757307 
   86400          432   0.71007741     3.338254    6.0942243     9.586045    15.680269    15.769844 
   86500        432.5   0.80661895   -1.0972629    8.2834193    10.889356    19.172775    15.783402 
   86600          433   0.64145567    2.5054365    9.0583064    8.6596516    17.717958    15.796477 
   86700        433.5   0.63823865   -1.1258878    7.4079069    8.6162218    16.024129    15.809611 
   86800          434   0.41288412    1.1466572    6.2520649    5.5739356    11.826001    15.822513 
   86900        434.5   0.43951001   -1.9194134    6.6872124    5.9333852    12.620598    15.835165 
   87000          435    0.4686151    1.7861993    5.1290725    6.3263038    11.455376    15.847198 
   87100        435.5   0.70717632     1.619441    6.6516688    9.5468803    16.198549    15.860606 
   87200          436   0.55349295   0.97461396    11.120115    7.4721548     18.59227    15.875999 
   87300        436.5   0.57289011   0.31418435    8.5513384    7.7340165    16.285355    15.894385 
   87400          437   0.82728894   0.95023314    3.6256319    11.168401    14.794033    15.913657 
   87500        437.5    0.5438629  -0.48822741    6.0733418    7.3421491    13.415491    15.933518 
   87600          438   0.53421605   0.18687407    6.5525263    7.2119167    13.764443    15.953504 
   87700        438.5   0.38963752  0.052413563    5.5661636    5.2601066     10.82627    15.974087 
   87800          439   0.37572114    1.1785731    7.2728582    5.0722353    12.345093    15.994638 
   87900        439.5   0.43001487    1.0733341    6.8638251    5.8052008    12.669026    16.015348 
   88000          440   0.70529066  -0.75638271    7.9005972    9.5214239    17.422021    16.035883 
   88100        440.5   0.70617597     1.837826    8.6928632    9.5333757    18.226239     16.05628 
   88200          441   0.52339229    2.5323143    8.7099547    7.0657959    15.775751    16.076779 
   88300        441.5   0.61087853  -0.26410656     5.917764    8.2468602    14.164624    16.097615 
   88400          442   0.67390986    1.5399815    5.2126567    9.0977831     14.31044    16.118391 
   88500        442.5   0.50264132   0.41554463    8.6569509    6.7856579    15.442609    16.138491 
   88600          443   0.36210373  -0.76516663    6.6240666    4.8884004    11.512467    16.158904 
   88700        443.5   0.45931979    2.2419992    4.7132046    6.2008172    10.914022    16.179218 
   88800          444   0.50338673   -1.3163337     4.753117    6.7957209    11.548838    16.199583 
   88900        444.5   0.45959846    1.0483235    5.6435188    6.2045792    11.848098    16.219503 
   89000          445   0.38629541    2.2908404    4.4173957     5.214988    9.6323837    16.239597 
   89100        445.5   0.49687004    1.3492573    3.9048475    6.7077455    10.612593    16.260585 
   89200          446   0.41115838  -0.54539115    5.3902382    5.5506381    10.940876    16.282041 
   89300        446.5   0.38544912 -0.015150976    4.0761328    5.2035631    9.2796959    16.303586 
   89400          447   0.31477095   0.43586287    4.0917716    4.2494079    8.3411795    16.324565 
   89500        447.5   0.49036745  -0.40438329    4.8127908    6.6199606    11.432751     16.34497 
   89600          448   0.75675344    1.2388495     3.781233    10.216171    13.997404    16.365116 
   89700        448.5   0.62689443    2.0142449    8.5480075    8.4630748    17.011082    16.386451 
   89800          449   0.69079725   0.38118875    8.1631295    9.3257628    17.488892    16.407554 
   89900        449.5   0.44126077 -0.0074814603     9.469853    5.9570204    15.426873    16.429199 
   90000          450   0.58839943   0.13936072    6.4406363    7.9433923    14.384029    16.451314 
   90100        450.5   0.34101232   0.78324792    5.5218637    4.6036664     10.12553     16.47294 
   90200          451   0.61128121  -0.32954305    4.2482562    8.2522964    12.500553    16.494062 
   90300        451.5   0.68414215   0.51905681    4.1118431    9.2359191    13.347762    16.514027 
   90400          452   0.52341616   -2.0362846    10.560838    7.0661182    17.626957    16.533942 
   90500        452.5   0.66502548    2.9357973    7.7610598     8.977844    16.738904    16.553079 
   90600          453   0.76719769   0.21385418    4.0877246    10.357169    14.444893    16.572419 
   90700        453.5   0.65067977   0.28667641    5.4429241    8.7841768    14.227101    16.591905 
   90800          454   0.68842589    1.9693142    6.6540354    9.2937494    15.947785    16.611718 
   90900        454.5   0.59457045      1.29493    5.8641008    8.0267011    13.890802    16.631159 
   91000          455    0.5605824   -1.0913328    8.0259599    7.5678624    15.593822    16.650386 
   91100        455.5   0.41913535    3.0937567    6.9824547    5.6583272    12.640782    16.668874 
   91200          456   0.52700813   -1.2847097    7.7011738    7.1146098    14.815784    16.687443 
   91300        456.5   0.76395814   -1.7613239    4.9618979    10.313435    15.275333    16.703919 
   91400          457   0.51891963    1.5233323    5.7820427     7.005415    12.787458    16.719866 
   91500        457.5   0.64613057   0.80511213    5.2650029    8.7227627    13.987766    16.736451 
   91600          458   0.57915359   -1.2674677    6.6608294    7.8185735    14.479403    16.753692 
   91700        458.5   0.48508049  -0.70879389    5.8877253    6.5485866    12.436312     16.76973 
   91800          459   0.49471609    1.5825154    9.0882967    6.6786672    15.766964    16.785151 
   91900        459.5     0.465771   0.63406299    8.7240445    6.2879086    15.011953    16.801098 
   92000          460    0.7477796   0.98288453    3.8415945    10.095025    13.936619    16.817029 
   92100        460.5   0.33737958   0.39898575    5.0769969    4.5546243    9.6316212    16.832191 
   92200          461   0.63405968   0.36616605    5.3003833    8.5598056    13.860189    16.847024 
   92300        461.5   0.40650078   -1.5846539    7.7045705    5.4877605    13.192331    16.861176 
   92400          462   0.56357656    0.3005912    4.5026457    7.6082836    12.110929     16.87485 
   92500        462.5   0.61011419   0.49622461    3.9963469    8.2365416    12.232889    16.888379 
   92600          463   0.58557142   0.42154297    4.7809731    7.9052141    12.686187    16.901601 
   92700        463.5   0.40713998  -0.42199883    4.8027434    5.4963897    10.299133    16.914369 
   92800          464   0.64103982   0.85054035    7.0345671    8.6540376    15.688605    16.926763 
   92900        464.5    0.7459646    1.3063517    3.7700372    10.070522    13.840559    16.939108 
   93000          465   0.41584895   0.64394212    4.9936263    5.6139609    10.607587     16.95121 
   93100        465.5   0.43344421  -0.19307733     3.459756    5.8514968    9.3112528    16.963064 
   93200          466   0.50907475   0.39228462    6.1855076    6.8725091    13.058017    16.974229 
   93300        466.5   0.40869357   0.27426227    6.6715484    5.5173633    12.188912    16.985104 
   93400          467    0.7091062   0.48427739    4.7738269    9.5729338    14.346761    16.995675 
   93500        467.5   0.50774815  -0.63658355    5.8324498       6.8546     12.68705    17.006033 
   93600          468   0.41372195    1.6809769     5.119017    5.5852463    10.704263    17.015949 
   93700        468.5    0.4915052    1.1981465    6.6907294    6.6353202     13.32605    17.025799 
   93800          469   0.89236825   -1.0289277    4.4010303    12.046971    16.448002     17.03476 
   93900        469.5   0.84595138 -0.043327469    6.5863075    11.420344    18.006651    17.043245 
   94000          470   0.72851388    1.9443714     6.048501    9.8349374    15.883438     17.05233 
   94100        470.5   0.43648891    3.6398506    9.5864116    5.8926003    15.479012    17.063052 
   94200          471   0.91521633    1.4261013    3.8573743     12.35542    16.212795    17.075353 
   94300        471.5   0.54785688   -1.3221212    4.7413055    7.3960679    12.137373    17.088368 
   94400          472   0.51138911    0.7757524    5.5552823    6.9037529    12.459035    17.100763 
   94500        472.5   0.26408539   0.33083414    5.8843387    3.5651528    9.4494916    17.113452 
   94600          473   0.46684268   -1.4934492    4.0440714    6.3023761    10.346448    17.125164 
   94700        473.5   0.35006899  0.085170794     4.498958    4.7259313    9.2248894    17.136368 
   94800          474   0.46276262   0.59124904    5.2959246    6.2472954     11.54322    17.147021 
   94900        474.5   0.51233461 0.0080885179    6.1859093    6.9165172    13.102427     17.15764 
   95000          475   0.71153623  -0.25868955    4.9812135    9.6057391    14.586953    17.168444 
   95100        475.5    1.1640827    2.4742083     6.509415    15.715116    22.224531    17.178747 
   95200          476   0.67312498   -2.0039499    9.4579741    9.0871872    18.545161    17.189314 
   95300        476.5   0.54180113   -1.4513203      11.7079    7.3143152    19.022215    17.199029 
   95400          477   0.70900349  -0.57904185     7.251481    9.5715471    16.823028    17.208318 
   95500        477.5   0.47369598    1.1920397    6.9285232    6.3948958    13.323419    17.216489 
   95600          478   0.59235838   -1.2825772    5.1697201    7.9968382    13.166558    17.224258 
   95700        478.5   0.44525281    2.3913498    8.0274106    6.0109129    14.038324    17.231113 
   95800          479   0.45776713   -0.1905925    5.4162615    6.1798563    11.596118    17.238555 
   95900        479.5   0.56493983  -0.44181516     5.902094    7.6266877    13.528782    17.245297 
   96000          480   0.49312146    -0.280175    4.5680504    6.6571397     11.22519    17.251381 
   96100        480.5   0.43576716   0.30154151    8.2231506    5.8828567    14.106007    17.257189 
   96200          481     1.017663   0.85358139    5.1394124     13.73845    18.877862    17.263038 
   96300        481.5   0.84589968    1.3307905    6.5906641    11.419646     18.01031    17.268402 
   96400          482   0.45580197    1.6967511    6.3810624    6.1533266    12.534389    17.273098 
   96500        482.5   0.53383828  -0.76666448    4.5305476    7.2068168    11.737364    17.277986 
   96600          483   0.56390181   0.51447797     3.139939    7.6126745    10.752613    17.282882 
   96700        483.5   0.34415343    2.1907023    7.1736432    4.6460713    11.819714    17.287278 
   96800          484   0.63890171   -1.7766691    6.7052284    8.6251731    15.330402    17.291798 
   96900        484.5   0.51703607   0.59727476     4.174386    6.9799869    11.154373    17.295677 
   97000          485    0.4997654   0.48391034    5.9060165     6.746833    12.652849    17.298505 
   97100        485.5   0.47789079    1.7229521    7.7037878    6.4515257    14.155313    17.300819 
   97200          486   0.55951817   0.74034024    4.5625526    7.5534953    12.116048    17.303324 
   97300        486.5   0.45477504   -1.6350254    7.0492747     6.139463    13.188738    17.305368 
   97400          487   0.59488493  -0.20555461    7.4000104    8.0309466    15.430957    17.306205 
   97500        487.5   0.55980149  -0.85941287     5.871595    7.5573201    13.428915    17.307164 
   97600          488   0.42909014  -0.95857491    5.5579296    5.7927169    11.350646    17.307408 
   97700        488.5   0.29126299    1.6725885    3.5512123    3.9320503    7.4832627    17.307579 
   97800          489   0.44164735   0.12282416    3.7778328    5.9622392     9.740072    17.307547 
   97900        489.5   0.62529539  -0.64980886    4.9402815    8.4414877    13.381769    17.307656 
   98000          490   0.44187057   0.81323027     6.873642    5.9652526    12.838895    17.308088 
   98100        490.5   0.49088031    1.4134045     2.846477    6.6268842    9.4733612    17.309585 
   98200          491     0.570367    0.8645837    4.5905914    7.6999545    12.290546    17.311505 
   98300        491.5   0.43500819    0.6065097    5.0420705    5.8726106    10.914681    17.313882 
   98400          492   0.73505817   0.80142956    4.8863253    9.9232852    14.809611    17.315877 
   98500        492.5   0.66166226  -0.36609308    4.3533865    8.9324405    13.285827    17.318451 
   98600          493   0.34963534   0.20555754    7.1139104     4.720077    11.833987    17.321161 
   98700        493.5   0.43676546    1.2768975    5.5979274    5.8963338    11.494261    17.323847 
   98800          494   0.32919542   -0.3456585    5.3109086    4.4441382    9.7550469    17.327479 
   98900        494.5   0.25386437   0.70593506    7.6020879     3.427169    11.029257    17.330236 
   99000          495   0.42894951  -0.22694142    7.9015004    5.7908184    13.692319    17.333013 
   99100        495.5   0.67509629    1.8584469    6.9869521       9.1138    16.100752     17.33563 
   99200          496   0.44903754   0.64220825    5.6933933    6.0620068      11.7554      17.3393 
   99300        496.5   0.23024849  -0.50308966    5.9556657    3.1083546    9.0640203    17.342589 
   99400          497   0.44162986    1.8934987    4.7067274    5.9620031     10.66873    17.345006 
   99500        497.5   0.49475854   0.27089527    7.3623838    6.6792402    14.041624    17.347662 
   99600          498   0.72685393    0.7643724    4.3793321    9.8125281     14.19186    17.349828 
   99700        498.5    0.4474457   0.14467817    4.0524776    6.0405169    10.092995      17.3515 
   99800          499   0.63681359    1.7742457    7.4895213    8.5969835    16.086505    17.352951 
   99900        499.5    1.0025733     1.240471    4.8466637    13.534739    18.381403     17.35435 
  100000          500   0.66900899   -2.1078187    8.3437026    9.0316213    17.375324    17.356926 
  100100        500.5    0.5917579    2.9467376    7.1487991    7.9887316    15.137531    17.358789 
  100200          501   0.73198035  -0.53189851     9.809287    9.8817348    19.691022    17.360163 
  100300        501.5   0.63944276   0.83871936    7.7315924    8.6324772     16.36407    17.361324 
  100400          502   0.58721173    1.3163683    5.7868346    7.9273584    13.714193    17.362425 
  100500        502.5   0.53965259  -0.91459784     4.628543      7.28531    11.913853    17.363747 
  100600          503   0.58691914     1.439688    5.4017621    7.9234084     13.32517    17.364316 
  100700        503.5   0.39673379  -0.71656625    4.5082724    5.3559062    9.8641785     17.36492 
  100800          504   0.45685602   0.73698684    6.0555342    6.1675563     12.22309    17.364964 
  100900        504.5   0.45391454    0.3508982    8.1722693    6.1278463    14.300116    17.364431 
  101000          505   0.45906182   0.27250877    6.3510038    6.1973346    12.548338    17.363115 
  101100        505.5   0.37302987   -1.1212697    4.9956903    5.0359033    10.031594    17.360942 
  101200          506   0.55838868   0.34950042    4.2397414    7.5382472    11.777989    17.357877 
  101300        506.5   0.70929429  -0.25180672    3.8358697    9.5754729    13.411343    17.354523 
  101400          507   0.79682769    1.0286211    5.7029254    10.757174    16.460099    17.350727 
  101500        507.5   0.59702284  -0.24068013    4.3564087    8.0598084    12.416217    17.348322 
  101600          508   0.54819927   0.58068831    5.8657564    7.4006901    13.266447      17.3462 
  101700        508.5   0.58493978   0.28252965    5.2988903     7.896687    13.195577    17.344894 
  101800          509   0.62709974    -1.733739    6.7183496    8.4658464    15.184196    17.343576 
  101900        509.5   0.52212563  0.060122402    6.5517588     7.048696    13.600455    17.341335 
  102000          510   0.52441411  -0.54484392    6.1259677    7.0795905    13.205558    17.338864 
  102100        510.5    0.4760587    1.0556038    4.8256612    6.4267924    11.252454    17.335558 
  102200          511   0.40933677 -0.076318234     6.463609    5.5260464    11.989655    17.331957 
  102300        511.5   0.51242973  -0.74426615    3.3431013    6.9178014    10.260903    17.328119 
  102400          512   0.46464895    0.8460434    4.8522543    6.2727608    11.125015    17.323383 
  102500        512.5   0.63098189  -0.73462486    4.1667476    8.5182556    12.685003    17.318359 
  102600          513    0.3162504  -0.42018614    4.0777211    4.2693804    8.3471015    17.312652 
  102700        513.5   0.58793009   0.72639779    3.9378775    7.9370562    11.874934    17.306701 
  102800          514   0.38715369   0.22204338    3.0717457    5.2265748    8.2983205    17.300203 
  102900        514.5   0.50718165  0.059334031    3.2041592    6.8469522    10.051111    17.292751 
  103000          515    0.5607502    3.8744225    5.4336659    7.5701278    13.003794    17.285495 
  103100        515.5   0.72827874  -0.62999625    5.7165395    9.8317631    15.548303    17.278461 
  103200          516   0.49013209    -1.679233    6.2163325    6.6167832    12.833116    17.271214 
  103300        516.5   0.76000929   0.80117218    5.7677249    10.260125     16.02785    17.261458 
  103400          517   0.41934711    -1.713763     6.936577    5.6611859    12.597763    17.250773 
  103500        517.5   0.30426469    1.7202046     6.234741    4.1075733    10.342314    17.240108 
  103600          518   0.43704207  -0.85354926    4.7560801     5.900068    10.656148    17.229138 
  103700        518.5   0.64535082  -0.10894901    5.8525806    8.7122361    14.564817    17.217626 
  103800          519   0.52074291    2.5991168    7.7372997    7.0300292    14.767329     17.20498 
  103900        519.5   0.38508659   -1.2810613    9.7780776     5.198669    14.976747    17.191485 
  104000          520   0.59243227    1.8750016    3.2830702    7.9978357    11.280906    17.178262 
  104100        520.5   0.47444698  -0.98579774    6.1367051    6.4050342    12.541739    17.165375 
  104200          521   0.75540505  -0.39455515    8.8364563    10.197968    19.034424    17.151445 
  104300        521.5   0.36921704  -0.32660955    8.2797585    4.9844301    13.264189       17.137 
  104400          522   0.48337978   0.34666189    7.0674489    6.5256271    13.593076     17.12117 
  104500        522.5   0.46494024  -0.22808167    6.9916309    6.2766932    13.268324    17.104692 
  104600          523   0.48851385   0.76368069    7.3301356     6.594937    13.925073    17.087094 
  104700        523.5   0.55807172  -0.71630112    7.6165526    7.5339682    15.150521    17.069184 
  104800          524   0.57329402     -1.59792    6.3677678    7.7394693    14.107237    17.051293 
  104900        524.5   0.67471206    2.3213134    3.8857187    9.1086128    12.994331    17.033154 
  105000          525   0.53145153  -0.19855578    3.8540227    7.1745957    11.028618    17.014552 
  105100        525.5     0.349535  -0.46866936    7.4278075    4.7187225     12.14653    16.995012 
  105200          526   0.60306171    2.0602911    3.9500924    8.1413331    12.091425    16.974792 
  105300        526.5    0.5015632   0.34641074    4.9896053    6.7711032    11.760709    16.954937 
  105400          527   0.36624859  0.020322337    4.0526455     4.944356    8.9970014     16.93473 
  105500        527.5   0.48957354  -0.82669037    4.5819591    6.6092428    11.191202    16.914159 
  105600          528   0.51085196  -0.42208311    5.1213598    6.8965015    12.017861    16.892855 
  105700        528.5   0.57692695    2.7037901    5.9654684    7.7885139    13.753982    16.871324 
  105800          529     0.572992  -0.22019506    5.8961726    7.7353919    13.631565    16.850313 
  105900        529.5   0.90776828   -1.2907197    4.5027151    12.254872    16.757587    16.829462 
  106000          530   0.60376429    1.0882562    6.7532428    8.1508179    14.904061    16.807913 
  106100        530.5   0.68262342  -0.57093081    5.8213598    9.2154162    15.036776     16.78696 
  106200          531   0.52255751     2.604327    7.8999668    7.0545263    14.954493    16.764983 
  106300        531.5   0.53029128   -1.2669918     9.991798    7.1589322     17.15073     16.74304 
  106400          532   0.78510696   0.73350373    8.7487032    10.598944    19.347647    16.720952 
  106500        532.5   0.65184503    2.4288434    5.4651869     8.799908    14.265095    16.698769 
  106600          533   0.59958072  -0.99580141    7.5138241    8.0943397    15.608164    16.675964 
  106700        533.5   0.53546978    1.8056998    7.2552607    7.2288421    14.484103    16.652337 
  106800          534   0.44010244   -2.0955173    9.5260863    5.9413829    15.467469    16.628254 
  106900        534.5     0.506728   0.74796932    5.0764175    6.8408281    11.917246    16.604349 
  107000          535    0.6566331   0.15837862     4.174922    8.8645468    13.039469    16.580446 
  107100        535.5    0.4087571   -2.9104308     5.268256    5.5182209    10.786477     16.55651 
  107200          536   0.21776269    2.0141764    6.0098424    2.9397963    8.9496387    16.532471 
  107300        536.5   0.63634157   -1.8531857    4.4141002    8.5906112    13.004711    16.508284 
  107400          537   0.59922625 -0.062997379    4.8552268    8.0895544    12.944781     16.48415 
  107500        537.5    0.4712651  0.023593454    4.2512169    6.3620789    10.613296    16.460104 
  107600          538   0.47585174   0.40884467    3.4791761    6.4239985    9.9031746    16.435317 
  107700        538.5   0.40786852    3.4174414     4.974702     5.506225    10.480927    16.411003 
  107800          539   0.45557647   -1.3465233    5.7411321    6.1502824    11.891415    16.387124 
  107900        539.5   0.40607377    3.5821458    7.1016009    5.4819959    12.583597    16.363353 
  108000          540   0.47715551   -3.7098453    5.7240624    6.4415993    12.165662    16.339671 
  108100        540.5    0.5435889    0.9657615    7.2437396    7.3384502     14.58219    16.315318 
  108200          541   0.66116917   -1.1831366    4.1568786    8.9257838    13.082662    16.291703 
  108300        541.5   0.72792357  0.031997513     6.520597    9.8269682    16.347565    16.267577 
  108400          542   0.67958276    1.1876141     4.623231    9.1743672    13.797598    16.243355 
  108500        542.5   0.55945694   -1.2238532    4.4272776    7.5526687    11.979946    16.219509 
  108600          543   0.46606546    1.9110236    7.7536145    6.2918837    14.045498    16.195187 
  108700        543.5   0.52106692    1.9236255    3.0698792    7.0344035    10.104283    16.171389 
  108800          544   0.43188152 -0.062127917    5.0127794    5.8304005     10.84318    16.146924 
  108900        544.5    0.3776948  -0.32890699    3.5639971    5.0988798    8.6628769    16.122245 
  109000          545   0.30946996 -0.070480425    4.1539276    4.1778445    8.3317721    16.098451 
  109100        545.5   0.30869974   0.83629708    5.2383189    4.1674465    9.4057654    16.074714 
  109200          546   0.33236112   -1.3708946    4.9763227    4.4868751    9.4631978    16.051345 
  109300        546.5   0.44920231    2.1653105    5.7330581    6.0642312    11.797289     16.02713 
  109400          547   0.65647137   0.66406051    4.0487719    8.8623635    12.911135    16.002767 
  109500        547.5   0.51555039   -0.2322932    5.4483568    6.9599302    12.408287    15.978847 
  109600          548   0.58215327   -2.1093851    6.1103225    7.8590692    13.969392    15.955242 
  109700        548.5   0.46775649    1.9438688    5.0298931    6.3147126    11.344606    15.930853 
  109800          549   0.60733636   0.73527749    2.0096954    8.1990408    10.208736    15.907454 
  109900        549.5    0.5145127   -1.4739478    5.2251954    6.9459214    12.171117    15.883605 
  110000          550   0.59592083     3.340625    7.9899409    8.0449312    16.034872    15.859523 
  110100        550.5   0.59519287  -0.55088452    6.2281852    8.0351037    14.263289     15.83708 
  110200          551   0.79734207    1.5850266    6.1327763    10.764118    16.896894     15.81374 
  110300        551.5   0.49531021   0.89147187    8.7305309    6.6866878    15.417219    15.791245 
  110400          552   0.53158199   0.68317224    6.7194423    7.1763569    13.895799    15.769902 
  110500        552.5    0.5231793    2.6550205    5.8982183    7.0629206    12.961139    15.748483 
  110600          553   0.50699551   -1.1319661    4.4671235    6.8444394    11.311563    15.728374 
  110700        553.5   0.62404754   -0.5655429    3.6878175    8.4246418    12.112459    15.707128 
  110800          554   0.48312938   0.65491405    4.9750529    6.5222467      11.4973    15.686053 
  110900        554.5   0.24867953    1.0878184    6.5675401    3.3571737    9.9247137    15.664655 
  111000          555   0.49292646   -1.4024094    4.0598843    6.6545072    10.714391    15.642632 
  111100        555.5   0.35835488    1.7375328    4.1664195    4.8377909    9.0042103    15.619764 
  111200          556   0.39259323   0.57588134    2.8363887    5.3000086    8.1363973    15.596806 
  111300        556.5   0.39141248    -1.360452    4.3339034    5.2840685    9.6179719    15.572822 
  111400          557   0.63274982    2.1520831    3.5454009    8.5421226    12.087524    15.547495 
  111500        557.5   0.46648288  -0.43128236    5.0531591    6.2975189    11.350678     15.52301 
  111600          558   0.45039247   -1.5426469    5.4185937    6.0802984    11.498892    15.498047 
  111700        558.5   0.47080266  -0.48895884    3.1205315    6.3558359    9.4763674    15.471971 
  111800          559   0.65552047    2.8770508    6.0389723    8.8495264    14.888499    15.446185 
  111900        559.5   0.54764118   0.35837995    4.9904837    7.3931559     12.38364    15.421063 
  112000          560    0.7070481    1.1065831    5.2364815    9.5451493    14.781631    15.395854 
  112100        560.5   0.43206463    3.5680416    7.0456393    5.8328725    12.878512    15.371053 
  112200          561   0.31522054  -0.43151985    6.4314982    4.2554772    10.686975    15.346711 
  112300        561.5   0.38453206    1.7923826    6.5523391    5.1911829    11.743522    15.322689 
  112400          562   0.31771915   0.20218721    3.3943758    4.2892085    7.6835843    15.298888 
  112500        562.5   0.49342204    3.1326269    4.6209302    6.6611975    11.282128    15.275359 
  112600          563   0.70972005  0.046516542    4.1220026    9.5812207    13.703223    15.252224 
  112700        563.5   0.28205797   -1.1754372    9.0687856    3.8077826    12.876568    15.229801 
  112800          564   0.51592834  -0.20664708    7.2356036    6.9650325    14.200636    15.207167 
  112900        564.5   0.47545561  -0.79633044    7.3619795    6.4186507     13.78063    15.183938 
  113000          565   0.61595337   -2.1294505    7.1257181    8.3153705    15.441089    15.160631 
  113100        565.5   0.58758033   0.12616603    5.1691835    7.9323344    13.101518    15.136857 
  113200          566   0.37337986      -1.5806    6.0897995    5.0406281    11.130428    15.112219 
  113300        566.5    0.5015328    2.7111892    6.7716608    6.7706928    13.542354    15.087521 
  113400          567   0.52101696  -0.22369033    6.6761861    7.0337289    13.709915    15.063207 
  113500        567.5   0.51234668   0.15312704    4.7432546    6.9166802    11.659935    15.038984 
  113600          568   0.71864732  0.013248737    5.5538984    9.7017389    15.255637    15.015277 
  113700        568.5   0.65604766    1.7465733    5.4131487    8.8566434    14.269792    14.991821 
  113800          569   0.44343044 -0.0035138709    6.9980174    5.9863109    12.984328     14.96836 
  113900        569.5   0.53227003    2.2348392    5.7611428    7.1856454    12.946788    14.943891 
  114000          570   0.41573189    -2.060345    6.6144958    5.6123805    12.226876    14.920054 
  114100        570.5    0.7994233   0.88831361    2.3915498    10.792215    13.183764     14.89579 
  114200          571   0.68007147    2.9212258    5.7126745    9.1809649    14.893639     14.87125 
  114300        571.5   0.59758282   -1.6225691    7.2598902    8.0673681    15.327258    14.846671 
  114400          572   0.54627018   -0.3531094    3.1851428    7.3746474     10.55979    14.822264 
  114500        572.5   0.52295403   0.10820994    4.1358787    7.0598793    11.195758    14.797636 
  114600          573   0.76808979  -0.21491017    2.9135903    10.369212    13.282802    14.772986 
  114700        573.5   0.56966422    1.6829386    5.4107184     7.690467    13.101185    14.747706 
  114800          574   0.51427307  -0.37509892    8.7718088    6.9426864    15.714495    14.722606 
  114900        574.5   0.80568766    1.5535115    6.6690157    10.876783    17.545799    14.698012 
  115000          575   0.64310912    2.9667286    4.5682111    8.6819731    13.250184    14.674598 
  115100        575.5   0.62034296   -1.5006526    5.3899357      8.37463    13.764566    14.651945 
  115200          576   0.54041579   0.23331322    6.3435423    7.2956131    13.639155    14.629138 
  115300        576.5    0.6415255    2.3910933     6.416826    8.6605942     15.07742    14.606785 
  115400          577   0.59624355   0.37944467    6.3827969    8.0492879    14.432085    14.584648 
  115500        577.5   0.35788012   0.19947839    9.1449772    4.8313816    13.976359    14.562793 
  115600          578   0.63546642    1.8285079    5.0060751    8.5787966    13.584872    14.541047 
  115700        578.5   0.36065905  -0.52071378    8.7998937    4.8688971    13.668791    14.519687 
  115800          579   0.44846233  -0.13362137    7.1652242    6.0542414    13.219466    14.498465 
  115900        579.5   0.70956982   -1.5954832    6.1902698    9.5791925    15.769462    14.477418 
  116000          580   0.46450465    1.6560397    8.3125418    6.2708127    14.583354    14.456271 
  116100        580.5   0.62091799    1.5154723    5.1144414    8.3823928    13.496834    14.434878 
  116200          581   0.48437818    1.7108428    7.1194402    6.5391054    13.658546    14.414759 
  116300        581.5   0.61037879  -0.13961358    5.7344435    8.2401137    13.974557    14.396029 
  116400          582   0.56041938    2.1856956    7.6991827    7.5656617    15.264844    14.377927 
  116500        582.5   0.54436408   -3.8856458    8.0948729    7.3489151    15.443788    14.360897 
  116600          583   0.39105211    1.2471434    5.8992584    5.2792035    11.178462    14.344634 
  116700        583.5   0.44965864  -0.24540601    5.9043469    6.0703916    11.974738    14.328682 
  116800          584   0.51221455   0.48593716    7.8015766    6.9148965    14.716473    14.312958 
  116900        584.5   0.57162297    2.8938958    5.3144894      7.71691    13.031399    14.297541 
  117000          585   0.44912554  -0.72702845    5.1524838    6.0631948    11.215679    14.282744 
  117100        585.5   0.49799272   0.69402152    4.3305399    6.7229017    11.053442    14.268098 
  117200          586   0.36855628    2.0650329    6.9366951    4.9755097    11.912205     14.25382 
  117300        586.5   0.38224718   0.30984105    4.6757222    5.1603369     9.836059     14.23914 
  117400          587   0.60646438   0.50929324    2.6369154    8.1872691    10.824184    14.224351 
  117500        587.5   0.49901231   0.28294081    5.0411039    6.7366661     11.77777    14.209672 
  117600          588   0.52023175    1.1411475    3.8550183    7.0231287    10.878147    14.195505 
  117700        588.5   0.46941761    1.1137433    6.1762315    6.3371377    12.513369    14.182139 
  117800          589    0.3357513   -1.5082224    7.4782297    4.5326425    12.010872      14.1699 
  117900        589.5   0.43350833    1.6219684    6.1535087    5.8523624    12.005871    14.157923 
  118000          590    0.5373975    0.8554854    7.3682745    7.2548663    14.623141     14.14677 
  118100        590.5   0.66856713   0.58670828    7.8162486    9.0256563    16.841905    14.136394 
  118200          591   0.81933646   0.98578812    7.3354005    11.061042    18.396443    14.126941 
  118300        591.5   0.55881938      0.79552    4.1597412    7.5440616    11.703803    14.118306 
  118400          592   0.49826718    1.5033618    5.8669222    6.7266069    12.593529    14.109818 
  118500        592.5   0.60489222   0.22536006    5.8089974     8.166045    13.975042    14.102003 
  118600          593   0.37963181   0.83797919    8.8390837    5.1250294    13.964113     14.09443 
  118700        593.5   0.65715947    1.4697961    5.7422105    8.8716528    14.613863    14.086953 
  118800          594   0.56958213   0.65094806    5.0852462    7.6893588    12.774605    14.079914 
  118900        594.5   0.44655808    4.5191483     7.113564    6.0285341    13.142098    14.073091 
  119000          595    0.5381711   -2.2220526    6.1481696    7.2653098    13.413479     14.06733 
  119100        595.5   0.63668634   -1.8555353    7.8859918    8.5952656    16.481257    14.060756 
  119200          596   0.38678746    4.0444798     8.437889    5.2216307     13.65952    14.054772 
  119300        596.5   0.62994978   0.34805749    4.7698694    8.5043221    13.274192    14.049058 
  119400          597   0.60106084  -0.90422136    8.2882702    8.1143213    16.402591    14.043649 
  119500        597.5   0.56336477    3.7436238    5.8513595    7.6054244    13.456784    14.038356 
  119600          598   0.59022843  -0.41200974    6.5703833    7.9680838    14.538467    14.033848 
  119700        598.5   0.45952343   -3.0443868    8.8908786    6.2035664    15.094445    14.029131 
  119800          599   0.57625153    0.9168295    7.7477852    7.7793957    15.527181    14.024397 
  119900        599.5   0.32279676    2.9896907    6.9015431    4.3577563    11.259299    14.020163 
  120000          600   0.63078779   0.19511765     3.760841    8.5156351    12.276476    14.016641 
  120100        600.5   0.46444118    0.2369031    5.0566689    6.2699559    11.326625    14.013442 
  120200          601   0.46003991    1.5274627    4.7142831    6.2105388    10.924822    14.010284 
  120300        601.5   0.49866407      1.28889    6.3279681    6.7319649    13.059933    14.007231 
  120400          602   0.50600477  -0.17265973    6.6721062    6.8310644    13.503171     14.00498 
  120500        602.5   0.45256302    2.2902225    4.9098226    6.1096008    11.019423     14.00234 
  120600          603   0.56275865   -2.8743981    5.3274042    7.5972418    12.924646    14.000205 
  120700        603.5   0.48863617   -1.5454332    5.9563604    6.5965883    12.552949    13.997431 
  120800          604   0.43452549    4.3822838    6.1114867    5.8660941    11.977581    13.994763 
  120900        604.5    0.5767455   -1.1539638    6.0128553    7.7860642     13.79892    13.993281 
  121000          605   0.58211762    1.2355795    6.3346871    7.8585878    14.193275    13.993188 
  121100        605.5   0.39363304    2.7618382    5.1745651    5.3140461    10.488611    13.994711 
  121200          606   0.54905941   -2.6975511    6.1570463     7.412302    13.569348    13.997341 
  121300        606.5   0.46942946    2.5300923     6.432443    6.3372978    12.769741    13.999386 
  121400          607    0.6261496    2.3475097    6.5281992    8.4530195    14.981219    14.001831 
  121500        607.5   0.39913495    1.4861673    9.6223776    5.3883218    15.010699     14.00419 
  121600          608   0.53596005   0.34180563    5.9488487    7.2354606    13.184309    14.007386 
  121700        608.5   0.68607944    3.0888665    5.3810494    9.2620724    14.643122    14.010232 
  121800          609   0.71776076  0.088605271    4.7065602    9.6897702     14.39633    14.013808 
  121900        609.5   0.64199229    1.2386607    5.9502319    8.6668959    14.617128    14.017951 
  122000          610   0.46673751    1.0485816    10.034377    6.3009564    16.335334    14.023607 
  122100        610.5   0.58904867  -0.96628989    7.3395601     7.952157    15.291717    14.030551 
  122200          611   0.53847315    2.7505945    7.8944206    7.2693875    15.163808    14.038156 
  122300        611.5   0.52249589   0.24221836    8.2463995    7.0536945    15.300094     14.04702 
  122400          612   0.71124579  -0.48106497    8.6131791    9.6018181    18.214997    14.056543 
  122500        612.5   0.53806275    2.0341812    7.7042821    7.2638472    14.968129    14.067227 
  122600          613   0.63014266    1.1016618    6.4247645    8.5069259     14.93169    14.079131 
  122700        613.5   0.62754778  -0.91426158    4.8731826     8.471895    13.345078    14.092089 
  122800          614    0.7003202    2.4236113    3.7648732    9.4543227    13.219196    14.104862 
  122900        614.5   0.41913384   0.85267965    6.6396334    5.6583069     12.29794     14.11864 
  123000          615   0.78268258    1.1189721    2.7662513    10.566215    13.332466     14.13313 
  123100        615.5   0.70085741  0.096026819    6.9508254    9.4615751    16.412401     14.14818 
  123200          616   0.66212688    0.3437209    4.1853566    8.9387129     13.12407    14.163258 
  123300        616.5   0.39993725   0.26511812    5.3623099    5.3991529    10.761463    14.178431 
  123400          617   0.30054891  -0.10346248      6.65154    4.0574103     10.70895    14.193862 
  123500        617.5   0.69118649   0.76563251    5.1146208    9.3310176    14.445638    14.210004 
  123600          618   0.80723192    3.2565415    4.5580678    10.897631    15.455699     14.22693 
  123700        618.5   0.39053773   -2.5579502    5.7854958    5.2722593    11.057755     14.24468 
  123800          619   0.52045629    2.2350478     6.893291    7.0261599    13.919451    14.262278 
  123900        619.5   0.42446237  0.077049452    5.5703746     5.730242    11.300617    14.279705 
  124000          620   0.46137067    1.3110343    5.6338558     6.228504     11.86236    14.296963 
  124100        620.5   0.40992845    1.5058228    7.0418528    5.5340341    12.575887    14.314533 
  124200          621    0.5449565  -0.58267408     6.201193    7.3569127    13.558106     14.33294 
  124300        621.5   0.53330087    4.2835083    9.0127264    7.1995617    16.212288     14.35191 
  124400          622   0.44796138   -2.5457916    6.9497433    6.0474786    12.997222    14.371456 
  124500        622.5   0.40144111    2.4268298     7.118672    5.4194549    12.538127    14.390774 
  124600          623   0.55161852   0.26292845     8.059385    7.4468501    15.506235    14.410198 
  124700        623.5   0.83930215   0.87794394    10.612361    11.330579     21.94294    14.430384 
  124800          624   0.61869111    3.3833376    8.1905248      8.35233    16.542855     14.45191 
  124900        624.5   0.70093603  -0.61468542    9.5849882    9.4626365    19.047625    14.475313 
  125000          625   0.46725653     3.791146    10.639227    6.3079632     16.94719    14.500381 
  125100        625.5   0.74062685   -2.7537264    12.857162    9.9984625    22.855624    14.526773 
  125200          626   0.42537334    1.9795699    9.9344631      5.74254    15.677003    14.553483 
  125300        626.5   0.47060451 -0.079043034    8.1624243    6.3531608    14.515585    14.581228 
  125400          627   0.64890156  -0.12118956    6.1763588     8.760171     14.93653    14.609707 
  125500        627.5   0.79368156   0.74798112    5.3790229    10.714701    16.093724    14.638233 
  125600          628   0.57351033  -0.99038108    6.8153411    7.7423895    14.557731     14.66727 
  125700        628.5   0.51334715    1.3442791    3.8045562    6.9301865    10.734743    14.696598 
  125800          629   0.65039912   0.27948898    3.9324464    8.7803882    12.712835    14.726432 
  125900        629.5   0.58981649     2.101467    5.1737436    7.9625227    13.136266    14.756778 
  126000          630   0.59887247    1.5500424    8.0663172    8.0847783    16.151095      14.7885 
  126100        630.5   0.76564962 -0.075667418    9.7316934     10.33627    20.067963    14.820549 
  126200          631    0.7548088    1.7966112    9.1245665    10.189919    19.314485    14.853268 
  126300        631.5    1.3121061     2.369052    4.1759657    17.713433    21.889398    14.887247 
  126400          632   0.84962254  -0.94466558    11.191663    11.469904    22.661567    14.922458 
  126500        632.5   0.34651319    2.1315412    8.3411054    4.6779281    13.019034    14.958928 
  126600          633   0.77734268    1.4537713    4.5590654    10.494126    15.053192    14.996193 
  126700        633.5    0.6126756  -0.14269868    7.5334461    8.2711207    15.804567    15.034358 
  126800          634   0.73115816     1.229632    6.1457432    9.8706352    16.016378    15.073037 
  126900        634.5   0.77042613   0.48858062    5.0108534    10.400753    15.411606    15.111957 
  127000          635   0.87658111   0.10208727     7.125602    11.833845    18.959447    15.152199 
  127100        635.5   0.60793332   0.17934156    7.1327316    8.2070998    15.339831    15.192963 
  127200          636   0.53325572    -1.541504     6.208168    7.1989523     13.40712    15.234839 
  127300        636.5   0.44109916    1.9397848    7.3325101    5.9548386    13.287349    15.277449 
  127400          637   0.46989945    1.1369166    4.7419938    6.3436426    11.085636    15.320705 
  127500        637.5   0.32598157   0.92995416    4.5235389    4.4007512    8.9242901    15.364864 
  127600          638     0.434746  -0.24246834    3.9890668    5.8690709    9.8581377    15.410375 
  127700        638.5   0.55075333   -1.1424325    4.1560425      7.43517    11.591212    15.455917 
  127800          639   0.45356613    1.3093218    6.5128975    6.1231427     12.63604    15.501392 
  127900        639.5   0.61456691    1.2295097    4.8108216    8.2966532    13.107475    15.547744 
  128000          640   0.67884946   -1.0752909    3.9172875    9.1644676    13.081755    15.595557 
  128100        640.5   0.31272565   0.11432984    8.5084239    4.2217963     12.73022    15.643431 
  128200          641   0.41195327   0.24202811    9.9300979    5.5613691    15.491467    15.691802 
  128300        641.5   0.88444107  -0.19680476    4.9933444    11.939954    16.933299    15.740199 
  128400          642   0.50983418    0.6448986    5.7024386    6.8827614      12.5852    15.789104 
  128500        642.5    0.4482209    2.5864083    5.6464153    6.0509822    11.697397     15.83865 
  128600          643   0.42842337 -0.099552965    4.5737998    5.7837155    10.357515    15.888201 
  128700        643.5   0.42212666     1.275559    4.5434024    5.6987099    10.242112    15.937937 
  128800          644   0.44186404  -0.74314174    3.2760491    5.9651646    9.2412137    15.987521 
  128900        644.5    0.4016589   0.61325036    4.7349374    5.4223951    10.157333     16.03695 
  129000          645    0.6197527    3.1557603    6.8250708    8.3666615    15.191732    16.086823 
  129100        645.5   0.55733496   -1.5554161    7.2000133     7.524022    14.724035    16.137382 
  129200          646    0.5407219     2.858562    10.037744    7.2997456     17.33749    16.188018 
  129300        646.5   0.53891408  -0.47072982    5.6508633    7.2753401    12.926203    16.238365 
  129400          647   0.48782909   0.16653198    6.6995905    6.5856926    13.285283    16.288781 
  129500        647.5   0.35734168    2.0754991    8.7112176    4.8241127     13.53533     16.34036 
  129600          648   0.51935421   0.37635439    7.1553701    7.0112819    14.166652    16.393006 
  129700        648.5   0.44429761   -1.1584669    7.9130753    5.9980177    13.911093    16.444697 
  129800          649   0.56720833    -1.647536    8.8820868    7.6573125    16.539399    16.495418 
  129900        649.5   0.77879608  -0.68496097    5.1011207    10.513747    15.614868    16.545885 
  130000          650   0.50605319    1.8906725    8.0178564    6.8317181    14.849574    16.595555 
  130100        650.5   0.69100906   0.89385374    5.5627465    9.3286223    14.891369    16.645142 
  130200          651   0.56934862   -1.8989499    7.4686593    7.6862063    15.154866    16.694674 
  130300        651.5   0.33448183    1.4942056    8.5026631    4.5155047    13.018168    16.744143 
  130400          652   0.36506288    1.2791986    5.5934113    4.9283489     10.52176    16.793572 
  130500        652.5   0.54444585  -0.32751032    4.8030422     7.350019    12.153061     16.84274 
  130600          653   0.47040309    1.3341298    2.9868391    6.3504417    9.3372808    16.891637 
  130700        653.5   0.28054046   0.61246823    3.1084486    3.7872962    6.8957448    16.940394 
  130800          654   0.35341738 -0.038093301    4.5850309    4.7711346    9.3561654    16.988162 
  130900        654.5   0.53603906   0.48246045     5.019898    7.2365273    12.256425    17.035379 
  131000          655   0.65033205  -0.21132136    3.8263364    8.7794826    12.605819     17.08243 
  131100        655.5   0.52547218    1.9282008    7.0761833    7.0938744    14.170058     17.12942 
  131200          656   0.49266785   -1.1307852    7.5629177     6.651016    14.213934    17.176653 
  131300        656.5   0.59670224   0.79208568    7.4064245    8.0554802    15.461905    17.223614 
  131400          657   0.71572726    0.8091216    3.4392165     9.662318    13.101534    17.270965 
  131500        657.5   0.57123974  -0.45744202    4.4047951    7.7117364    12.116532    17.317822 
  131600          658     0.457153   0.20573321    2.8126969    6.1715655    8.9842624    17.364032 
  131700        658.5   0.47662146   0.66002155     4.253896    6.4343898    10.688286    17.410296 
  131800          659   0.46625273 -0.026595019    3.0441831    6.2944119     9.338595    17.456723 
  131900        659.5   0.28914456   -1.4516001    4.9890646    3.9034515    8.8925162    17.502445 
  132000          660   0.44990961  0.023876715    2.6003884    6.0737797    8.6741681    17.547491 
  132100        660.5   0.63881171    1.0600862    3.5054174     8.623958    12.129375    17.592164 
  132200          661   0.57608166   0.12297004    3.2943125    7.7771025    11.071415    17.637335 
  132300        661.5   0.61970772    1.3291538    7.8542095    8.3660543    16.220264    17.682206 
  132400          662   0.58015878   0.90543121    7.8893932    7.8321435    15.721537    17.728316 
  132500        662.5   0.60966326    2.4232594    5.9675695     8.230454    14.198023    17.774433 
  132600          663   0.46509705   -1.7525741    7.4219795    6.2788102     13.70079    17.820471 
  132700        663.5   0.69404323    0.6108871    3.3778008    9.3695836    12.747384    17.865659 
  132800          664   0.67683811   0.87118823    3.9122103    9.1373145    13.049525    17.911025 
  132900        664.5    0.5011241   0.20012767    4.0291172    6.7651754    10.794293    17.955412 
  133000          665   0.54394287   0.63217836    4.4104972    7.3432287    11.753726    18.000141 
  133100        665.5   0.41947819   0.39871983    5.6627866    5.6629556    11.325742    18.044386 
  133200          666   0.48476443  -0.39833695    5.2528898    6.5443198     11.79721    18.087971 
  133300        666.5   0.46331588 -0.030713781    6.5816237    6.2547644    12.836388    18.130912 
  133400          667   0.50035078  0.035429904     4.783954    6.7547355     11.53869    18.173262 
  133500        667.5   0.52611915   0.70506101    5.5619475    7.1026085    12.664556     18.21562 
  133600          668   0.48940077   0.80107874     4.579569    6.6069104    11.186479    18.257475 
  133700        668.5   0.38833434    2.6845438    6.4767934    5.2425135    11.719307    18.298525 
  133800          669   0.70339695  -0.25510659    3.8941911    9.4958589     13.39005    18.339886 
  133900        669.5   0.50093591   0.81336402    4.9925014    6.7626348    11.755136    18.380843 
  134000          670   0.28559309    0.1082474    7.4049843    3.8555068    11.260491    18.422253 
  134100        670.5   0.42610258    1.0192243    4.3464981    5.7523848    10.098883    18.463273 
  134200          671   0.46915553 -0.082809708    4.3726068    6.3335997    10.706206    18.504001 
  134300        671.5   0.38602217   0.25912537     4.817414    5.2112992    10.028713    18.544892 
  134400          672   0.45959918    1.6085931    4.1992911    6.2045889     10.40388    18.585902 
  134500        672.5    0.3604105  -0.63678571    7.5058931    4.8655417    12.371435    18.627342 
  134600          673   0.73839926   0.32696911    3.5762529      9.96839    13.544643    18.668044 
  134700        673.5   0.44767773    1.4732932    5.4701385    6.0436494    11.513788    18.708174 
  134800          674   0.60053814   -1.8765563     6.893974    8.1072648    15.001239    18.748014 
  134900        674.5   0.46355453    1.2149209     7.296261    6.2579861    13.554247    18.787134 
  135000          675   0.29130668    -1.632057    7.2537139    3.9326402    11.186354    18.826817 
  135100        675.5   0.54254666 -0.017274895    5.0303031      7.32438    12.354683     18.86535 
  135200          676   0.42937187    1.0205167    4.2427272    5.7965203    10.039248    18.903133 
  135300        676.5   0.46675191  -0.83650162    4.8978588    6.3011508     11.19901    18.940022 
  135400          677   0.39828239   0.15371096    3.8704614    5.3768122    9.2472736     18.97629 
  135500        677.5   0.37099013   0.42565968    4.1230151    5.0083668    9.1313818    19.011561 
  135600          678   0.34249201   0.20868505    5.5330645    4.6236421    10.156707    19.046345 
  135700        678.5   0.49463068  -0.10551308    3.6576564    6.6775142    10.335171    19.079968 
  135800          679   0.44574714  0.067267397    5.4372673    6.0175864    11.454854    19.112396 
  135900        679.5   0.30494327   0.83407733    5.9703701    4.1167341    10.087104     19.14505 
  136000          680   0.57870499  0.065773631    4.5424959    7.8125173    12.355013    19.176544 
  136100        680.5   0.53754149    -1.350133       6.4972    7.2568101     13.75401    19.208022 
  136200          681   0.44970861    1.7844963     5.543028    6.0710663    11.614094    19.238341 
  136300        681.5   0.44685803   -1.3658537    2.3424446    6.0325834     8.375028    19.268345 
  136400          682    0.4543531   0.99635959    2.9761932    6.1337669    9.1099601    19.297835 
  136500        682.5   0.58987364    1.5217682    2.6320433    7.9632942    10.595338    19.326212 
  136600          683   0.54644308   -0.3954639    5.0366513    7.3769816    12.413633    19.354245 
  136700        683.5   0.71772364     1.097252    3.6854508    9.6892691     13.37472    19.381368 
  136800          684   0.73031205    3.2439091    4.2519752    9.8592126    14.111188    19.408605 
  136900        684.5   0.55365393   -1.5391816    6.9391672    7.4743281    14.413495    19.435839 
  137000          685   0.60147988    1.5676593    3.5114746    8.1199783    11.631453    19.461996 
  137100        685.5   0.57078308   0.79657791    3.5734851    7.7055716    11.279057    19.487796 
  137200          686   0.52617635  -0.55351964     5.107108    7.1033807    12.210489     19.51327 
  137300        686.5   0.56869432    2.3572112    7.6982809    7.6773733    15.375654      19.5381 
  137400          687   0.52272964  -0.27719591    6.9829954    7.0568502    14.039846    19.562443 
  137500        687.5   0.71043021   0.45037316    4.0760442    9.5908078    13.666852     19.58628 
  137600          688    0.4184751   0.30632462    5.0075106    5.6494139    10.656924    19.609343 
  137700        688.5    0.6375378    0.1841167    3.4191057    8.6067602    12.025866    19.631759 
  137800          689   0.62688579   0.87291522    6.5346805    8.4629581    14.997639    19.653239 
  137900        689.5   0.67680632  -0.25405542    4.2009865    9.1368853    13.337872    19.674284 
  138000          690   0.67929392    1.4627594    5.2740309    9.1704679    14.444499    19.694743 
  138100        690.5   0.75623797  0.028023671    5.6554243    10.209213    15.864637    19.715209 
  138200          691   0.44042224  -0.89873794    7.3035045    5.9457003    13.249205    19.735053 
  138300        691.5   0.43391664    1.0389728    8.7564585    5.8578746    14.614333    19.754221 
  138400          692   0.62229479   0.17270517     6.913109    8.4009797    15.314089    19.772613 
  138500        692.5   0.61202452  -0.35404987    7.3207826     8.262331    15.583114    19.790636 
  138600          693    0.4721726  -0.33040077    5.7921074    6.3743301    12.166438    19.808063 
  138700        693.5   0.57075043  -0.58443421    3.7147817    7.7051307    11.419912    19.824543 
  138800          694   0.59268257     2.000906    7.3428461    8.0012147    15.344061    19.839802 
  138900        694.5   0.60231051   -1.7870134    7.1916204    8.1311919    15.322812     19.85457 
  139000          695   0.37506066   0.65886172    6.3508239     5.063319    11.414143    19.868283 
  139100        695.5   0.51292699  -0.88252145     7.521067    6.9245143    14.445581    19.881036 
  139200          696    0.7250435   -1.0586325    5.4043247    9.7880872    15.192412    19.892239 
  139300        696.5   0.75015997    1.3014277    6.1061705     10.12716     16.23333    19.902708 
  139400          697   0.47859451  -0.55417407    7.2944012    6.4610258    13.755427     19.91293 
  139500        697.5   0.57851961   0.60021048    6.2112088    7.8100147    14.021223     19.92288 
  139600          698    1.0446342    1.9062645    4.9623256    14.102561    19.064887    19.932768 
  139700        698.5   0.57839375  -0.85531406    5.3327672    7.8083157    13.141083    19.942202 
  139800          699   0.35467837   0.84697832    5.4334718     4.788158     10.22163    19.950462 
  139900        699.5   0.48596776  -0.43320588    5.2213886    6.5605648    11.781953    19.957956 
  140000          700    0.5547033   -1.2248388    4.3592619    7.4884945    11.847756    19.964796 
  140100        700.5    0.4287209    1.4666439    7.0254954    5.7877321    12.813227    19.971007 
  140200          701   0.45118055   0.14747899    8.9987395    6.0909374    15.089677     19.97712 
  140300        701.5   0.35634505  -0.89701248    5.8570738    4.8106582    10.667732    19.984049 
  140400          702   0.35261004    2.1161247     4.759058    4.7602355    9.5192936    19.990973 
  140500        702.5   0.59472449  0.054302934    6.9622737    8.0287806    14.991054    19.997212 
  140600          703   0.58021167   0.88937824    3.9807409    7.8328576    11.813598    20.003407 
  140700        703.5   0.24037039 -0.0036377221    5.2525622    3.2450003    8.4975625    20.008421 
  140800          704   0.37495877  -0.48060265    2.7913784    5.0619434    7.8533217    20.011473 
  140900        704.5   0.34146531   0.41365952    3.8175501    4.6097817    8.4273318    20.013144 
  141000          705   0.38327972   -1.2697328    5.1624784    5.1742763    10.336755    20.013942 
  141100        705.5   0.55833787    1.5795918    5.6992435    7.5375613    13.236805    20.013605 
  141200          706   0.69597062   -1.2848592    6.6517201    9.3956034    16.047323    20.012025 
  141300        706.5   0.66804355   0.82396134    7.2171229     9.018588    16.235711    20.009132 
  141400          707   0.62113381    1.3234965    10.438516    8.3853064    18.823823    20.006576 
  141500        707.5   0.55200481  -0.74659024    6.4628114    7.4520649    13.914876    20.003942 
  141600          708   0.61500246   0.25827637    7.6794314    8.3025332    15.981965    20.000224 
  141700        708.5    0.5866272     1.316492    8.7027332    7.9194672      16.6222    19.997558 
  141800          709   0.89281077  0.077796753    6.3023854    12.052945    18.355331    19.995379 
  141900        709.5   0.78787246    1.2008199    8.5662072    10.636278    19.202485    19.992368 
  142000          710   0.50424046    1.0050662    8.1150696    6.8072463    14.922316    19.989585 
  142100        710.5   0.65836299   -1.0425946    7.3625428    8.8879004    16.250443    19.986188 
  142200          711   0.59467386   -1.8769792    9.2316353    8.0280971    17.259732    19.982176 
  142300        711.5   0.63471863    1.1949823    6.2029104    8.5687015    14.771612    19.975734 
  142400          712   0.70565604    1.1535712    5.5325097    9.5263565    15.058866    19.969009 
  142500        712.5   0.87663236   -1.8317379    5.8730138    11.834537    17.707551    19.962038 
  142600          713   0.42660368    0.6739195    9.7282243    5.7591497    15.487374     19.95262 
  142700        713.5   0.46245626   -0.5203126     3.990757    6.2431595    10.233917     19.94245 
  142800          714   0.63109611   0.36760147    3.5945539    8.5197975    12.114351    19.931193 
  142900        714.5   0.40770241   0.42781869    5.8194251    5.5039825    11.323408    19.919391 
  143000          715   0.35661917  -0.18171057    6.7913204    4.8143588    11.605679    19.906905 
  143100        715.5   0.82487189  -0.81731709    5.9110094    11.135771     17.04678    19.891724 
  143200          716   0.75280313  -0.15870804    7.5927276    10.162842     17.75557    19.874061 
  143300        716.5   0.73637732    1.8493944     9.236899    9.9410938    19.177993    19.855621 
  143400          717   0.73847672    1.9203557    7.7085768    9.9694358    17.678013    19.838832 
  143500        717.5   0.73418089  -0.52702867    6.8659564     9.911442    16.777398    19.821726 
  143600          718   0.61251981  -0.41573697    8.6707274    8.2690175    16.939745     19.80348 
  143700        718.5   0.75003399   0.37413083     8.869632    10.125459    18.995091    19.785247 
  143800          719   0.68729322  -0.61488017    5.4668336    9.2784585    14.745292    19.765858 
  143900        719.5   0.40131107   0.51220818    4.9300752    5.4176994    10.347775     19.74581 
  144000          720   0.41418004   0.22984012    5.1036211    5.5914305    10.695052    19.724496 
  144100        720.5   0.45478215     0.502138    4.4766288    6.1395591    10.616188    19.701883 
  144200          721   0.43291077    1.3418508    6.1339646    5.8442953     11.97826    19.678468 
  144300        721.5   0.30899631      -1.1122    4.8286241    4.1714502    9.0000743    19.654208 
  144400          722   0.42539689   0.78676159     4.737151     5.742858    10.480009    19.628618 
  144500        722.5   0.60625233   -0.2561024    6.8304969    8.1844065    15.014903    19.602045 
  144600          723   0.47419096  -0.31688103    7.6941488     6.401578    14.095727    19.574412 
  144700        723.5   0.60670889 -0.0057899665    6.2403912    8.1905701    14.430961    19.546261 
  144800          724   0.41234204    1.8296534    7.5998469    5.5666176    13.166464    19.516917 
  144900        724.5   0.60007457   0.58715391    5.3046808    8.1010067    13.405687    19.487474 
  145000          725   0.56519584   -1.6816819    6.2618926    7.6301438    13.892036    19.456618 
  145100        725.5   0.88806119   0.20063523    4.9328679    11.988826    16.921694    19.424184 
  145200          726   0.51765462   0.38150592    9.3249201    6.9883373    16.313257    19.390649 
  145300        726.5   0.92573203  0.066884043    5.1718553    12.497382    17.669238    19.357071 
  145400          727     0.677722    1.1840236    6.9321498     9.149247    16.081397    19.322874 
  145500        727.5   0.56939223   0.21192744    7.2587513    7.6867951    14.945546    19.288203 
  145600          728   0.72234282  -0.30231335    4.7340066     9.751628    14.485635    19.253785 
  145700        728.5   0.53901719    1.0664087    4.5813349    7.2767321    11.858067    19.218271 
  145800          729   0.62317394  -0.93820841    4.2805732    8.4128482    12.693421    19.181645 
  145900        729.5   0.66563393  -0.11481431      3.44305    8.9860581    12.429108    19.144152 
  146000          730   0.46094368  -0.34341323    3.9438749    6.2227397    10.166615    19.105006 
  146100        730.5   0.48849355  -0.13355462     3.784041    6.5946629    10.378704    19.063705 
  146200          731   0.40003376   0.89662958    3.7414994    5.4004558    9.1419552    19.021187 
  146300        731.5   0.37488728   -1.0581714    3.4043964    5.0609783    8.4653747    18.977868 
  146400          732   0.42255981     1.022842     4.046943    5.7045574    9.7515004    18.932648 
  146500        732.5   0.47947756   -1.3628385    5.7407105     6.472947    12.213658     18.88752 
  146600          733   0.50336373   -1.1304467    5.9911789    6.7954104    12.786589    18.841347 
  146700        733.5   0.58324388  -0.54672731    5.0622203    7.8737923    12.936013    18.792928 
  146800          734   0.37002241   -0.6313968    5.3775532    4.9953026    10.372856    18.742922 
  146900        734.5   0.44283259  -0.17943158    4.7274872    5.9782399    10.705727    18.691838 
  147000          735   0.52085367    1.4601131    4.6606563    7.0315246    11.692181    18.638732 
  147100        735.5   0.81066169   -2.0332539    4.9230712    10.943933    15.867004    18.585427 
  147200          736    0.4964171    1.3507406    6.2568273    6.7016309    12.958458    18.530544 
  147300        736.5   0.62671489  0.032860211    5.5710485     8.460651    14.031699    18.474389 
  147400          737   0.49845472   -1.2117918    6.4521854    6.7291387    13.181324    18.416725 
  147500        737.5   0.53954905   0.65787283    6.1453702    7.2839122    13.429282    18.357644 
  147600          738   0.73808048    1.1328072    7.0141488    9.9640864    16.978235    18.298325 
  147700        738.5   0.45601906     1.590108    6.0578902    6.1562573    12.214147    18.237833 
  147800          739    0.5143002  -0.45779987    3.8485233    6.9430526    10.791576    18.177008 
  147900        739.5   0.55659661  -0.37943854    3.7383042    7.5140543    11.252358    18.114783 
  148000          740   0.41060024  -0.51252696    6.9246727    5.5431032    12.467776    18.051264 
  148100        740.5   0.57964079   0.44112092    6.4972865    7.8251507    14.322437    17.986916 
  148200          741    0.6117757  -0.34086066    6.9776648    8.2589719    15.236637    17.921774 
  148300        741.5   0.51271608 -0.057845318     8.243414    6.9216671    15.165081    17.854255 
  148400          742   0.52509464   -0.8876654    4.5548097    7.0887776    11.643587    17.786499 
  148500        742.5   0.44977391    1.7652961    6.2972904    6.0719478    12.369238    17.718571 
  148600          743   0.66106952    0.6670638    6.1770791    8.9244385    15.101518    17.651488 
  148700        743.5   0.64942043 -0.078951054    4.4269593    8.7671757    13.194135    17.584481 
  148800          744   0.47278356    1.7463391    4.8970877     6.382578    11.279666    17.516416 
  148900        744.5   0.37889057   0.52524813    9.4386267    5.1150227    14.553649     17.44781 
  149000          745   0.67354877   -1.8444931    6.7987252    9.0929083    15.891634    17.377527 
  149100        745.5   0.68948812  -0.19105519    5.7138731    9.3080896    15.021963    17.305839 
  149200          746   0.63033186   0.53218246    6.7260781    8.5094801    15.235558    17.233342 
  149300        746.5   0.57448766    1.6986732    9.1832679    7.7555834    16.938851    17.160832 
  149400          747    0.8785143    -2.189219    9.1115067    11.859943     20.97145    17.089515 
  149500        747.5   0.96307169  -0.33557003    5.2352562    13.001468    18.236724    17.018587 
  149600          748   0.74386811    3.5493514    6.3261749    10.042219    16.368394    16.946845 
  149700        748.5   0.45679563   -3.0792188     10.55881     6.166741    16.725551    16.874751 
  149800          749   0.68335293    2.8812569     6.066627    9.2252646    15.291892    16.801941 
  149900        749.5   0.56600465   -1.0879864    7.9518742    7.6410627    15.592937    16.728969 
  150000          750   0.66454122  -0.37346696    3.5238963    8.9713065    12.495203    16.655488 
  150100        750.5   0.35726106    2.3471105    4.5016489    4.8230243    9.3246731    16.581038 
  150200          751   0.48572054     -0.87099    4.9041468    6.5572273    11.461374    16.506754 
  150300        751.5   0.58761259    0.7911985    5.8356981    7.9327699    13.768468    16.431944 
  150400          752   0.45623724   0.41368053    5.1675008    6.1592027    11.326704     16.35727 
  150500        752.5   0.41184323   -2.0247044    4.8768026    5.5598836    10.436686    16.283255 
  150600          753   0.49141435   -0.2835263    5.2911109    6.6340938    11.925205    16.209093 
  150700        753.5   0.44440858    2.4607376    4.9070128    5.9995159    10.906529     16.13419 
  150800          754   0.64668733  -0.45192714    3.4958759     8.730279    12.226155    16.058906 
  150900        754.5    0.7916927 -0.045188301     4.817093    10.687851    15.504944    15.982876 
  151000          755   0.56468072   0.92668524    7.9016654    7.6231897    15.524855    15.907318 
  151100        755.5    0.4840103  -0.98284923    6.3892869    6.5341391    12.923426    15.831336 
  151200          756   0.60358917    2.0140345    4.2551392    8.1484537    12.403593    15.754977 
  151300        756.5   0.41132377    1.8130286    5.2440545    5.5528708    10.796925    15.678393 
  151400          757   0.44311999    1.0976482    5.7458381    5.9821199    11.727958    15.602012 
  151500        757.5    0.5348129 -0.039223869    7.3933221    7.2199742    14.613296    15.526356 
  151600          758   0.51524066    2.1623335    5.5186117    6.9557489    12.474361    15.451295 
  151700        758.5   0.48074523    1.2207413    2.8029879    6.4900606    9.2930485    15.376546 
  151800          759   0.35517975   -1.2734981    7.3257725    4.7949266    12.120699    15.301809 
  151900        759.5   0.54262335   0.43407057    6.1195213    7.3254153    13.444937    15.227256 
  152000          760   0.55770021    2.8211276    7.2019684    7.5289529    14.730921    15.153716 
  152100        760.5   0.56380439   0.05300884    6.2983047    7.6113592    13.909664    15.080691 
  152200          761   0.65529129   0.39591214    5.5593398    8.8464324    14.405772    15.007347 
  152300        761.5   0.44639783  -0.27286835    5.8681218    6.0263707    11.894493    14.933888 
  152400          762   0.62796069    1.5192651    4.3665282    8.4774693    12.843997    14.860555 
  152500        762.5   0.60014717   -1.4364383    6.8633468    8.1019868    14.965334    14.786836 
  152600          763   0.38644204   -1.4157331    9.4886848    5.2169675    14.705652    14.712799 
  152700        763.5   0.39319726    2.3412689    6.9046581     5.308163    12.212821    14.638634 
  152800          764   0.49815369   -1.0875927    5.2622167    6.7250748    11.987291    14.564919 
  152900        764.5   0.48530981    1.9354137    6.6321878    6.5516824     13.18387    14.491698 
  153000          765   0.72951489   0.61610151    2.8114678     9.848451    12.659919    14.418849 
  153100        765.5   0.46086482   0.66589421    6.6461044    6.2216751    12.867779    14.346536 
  153200          766   0.47042775    2.8525699    4.0166011    6.3507747    10.367376    14.275799 
  153300        766.5   0.62484015   0.62736951    5.4354008    8.4353421    13.870743    14.205922 
  153400          767   0.68428606 -0.093859854    7.2142253    9.2378618    16.452087    14.137044 
  153500        767.5   0.73855001    1.4781123    6.2538412    9.9704251    16.224266     14.06823 
  153600          768   0.69259514    2.5836023    8.7129941    9.3500344    18.063028    13.999667 
  153700        768.5   0.84603845    2.5722605     5.174755    11.421519    16.596274    13.932865 
  153800          769   0.70061892   -1.5555314    4.4065193    9.4583554    13.864875     13.86761 
  153900        769.5   0.51258202    1.1732707    6.1306404    6.9198572    13.050498    13.802617 
  154000          770   0.37890579    3.6121722    7.7632668    5.1152282    12.878495    13.738166 
  154100        770.5   0.63233349   -0.5651191    4.5241701    8.5365021    13.060672    13.675273 
  154200          771   0.49921508    2.6476604    7.2057765    6.7394036     13.94518    13.612998 
  154300        771.5   0.75305902  0.040833514    8.6139594    10.166297    18.780256    13.551839 
  154400          772   0.74807636   -1.6961137    5.4559268    10.099031    15.554958    13.491202 
  154500        772.5   0.66758578    4.6203012    5.0389065     9.012408    14.051314     13.43071 
  154600          773   0.69183598   0.86991038     6.861224    9.3397857     16.20101     13.37196 
  154700        773.5   0.38714083   -3.2689878    8.3459492    5.2264013     13.57235    13.312819 
  154800          774   0.53256303    1.9770472    4.0747571    7.1896009    11.264358    13.253543 
  154900        774.5   0.83903984    0.6418424     4.513791    11.327038    15.840829    13.195503 
  155000          775   0.64941568   0.14325331    6.7059826    8.7671117    15.473094    13.137761 
  155100        775.5   0.64338611    2.3593936    5.9492972    8.6857125     14.63501    13.080164 
  155200          776   0.56893413    2.0481394    6.1701299    7.6806107    13.850741    13.023955 
  155300        776.5   0.64040594    3.4120933    6.9276027    8.6454802    15.573083    12.968932 
  155400          777   0.82823299   -1.0619883    6.0749083    11.181145    17.256054    12.914801 
  155500        777.5   0.62673351  -0.30597481    8.1535315    8.4609024    16.614434    12.861953 
  155600          778   0.77937615    2.1614363    4.6107579    10.521578    15.132336    12.810436 
  155700        778.5   0.80992607   0.16138564    4.5588747    10.934002    15.492877    12.760381 
  155800          779   0.57508895    -2.358398    4.2110753    7.7637009    11.974776    12.711352 
  155900        779.5    0.5713358    1.4838331     3.892617    7.7130333     11.60565    12.661535 
  156000          780   0.67479696       2.6923    5.5700738    9.1097589    14.679833    12.612048 
  156100        780.5   0.55480569   -1.6801167    6.8649693    7.4898768    14.354846    12.564127 
  156200          781   0.62303738    1.6234438    5.6377562    8.4110046    14.048761    12.515587 
  156300        781.5   0.53668196    4.1845637    5.6936521    7.2452064    12.938859    12.468324 
  156400          782   0.34269621  -0.34295108     5.277209    4.6263989    9.9036079    12.423295 
  156500        782.5   0.43641505  -0.80847009    3.8732353    5.8916032    9.7648385    12.378183 
  156600          783   0.55503136    1.3418897    4.1590859    7.4929234    11.652009    12.333513 
  156700        783.5   0.40792527    1.1472994    5.3073633    5.5069912    10.814354    12.288671 
  156800          784   0.55819543  -0.14530987    4.2272934    7.5356383    11.762932     12.24318 
  156900        784.5   0.78852626    1.5277019     4.233837    10.645105    14.878942    12.199009 
  157000          785   0.59799316   0.20159934    6.8958377    8.0729076    14.968745    12.155761 
  157100        785.5   0.74780949   -1.4276954    6.5058298    10.095428    16.601258    12.112052 
  157200          786   0.46503468      1.47498     7.413383    6.2779682    13.691351    12.069349 
  157300        786.5   0.45636357    -2.383296    7.7859564    6.1609082    13.946865    12.028854 
  157400          787   0.57018649    2.8869577    6.1580629    7.6975177    13.855581    11.987511 
  157500        787.5   0.66388352   0.44472816    5.7974294    8.9624275    14.759857    11.947007 
  157600          788   0.62616374    3.1351715     5.095681    8.4532106    13.548892    11.906347 
  157700        788.5   0.48156906      2.02834    4.9934916    6.5011823    11.494674    11.866221 
  157800          789   0.39700799    1.5067889    4.9618059    5.3596079    10.321414    11.827733 
  157900        789.5    0.5318387   0.33575152    4.4061106    7.1798225    11.585933    11.790404 
  158000          790   0.49156805   0.40201272     5.895016    6.6361687    12.531185    11.752887 
  158100        790.5   0.55304472   -2.5597754     5.069001    7.4661038    12.535105    11.714868 
  158200          791   0.65463755  -0.89452909     6.456464    8.8376069    15.294071    11.676793 
  158300        791.5    0.3833184    4.4067131    6.1278807    5.1747984    11.302679    11.639046 
  158400          792   0.39956627   -2.0079729    7.2604506    5.3941446    12.654595    11.602028 
  158500        792.5   0.51367479   -1.8139105    7.0614062    6.9346096    13.996016    11.565222 
  158600          793   0.38302899    4.8209739    7.7046412    5.1708914    12.875533    11.529169 
  158700        793.5   0.56897459  -0.35947111    6.0136197     7.681157    13.694777    11.493893 
  158800          794   0.50656722   0.41243605    6.6933653    6.8386574    13.532023    11.459039 
  158900        794.5   0.67985839    3.2638166    5.9856934    9.1780882    15.163782    11.425604 
  159000          795    0.4680106    1.5984328    8.7095216    6.3181431    15.027665     11.39408 
  159100        795.5    0.4977429  -0.21810471    4.4132309    6.7195292     11.13276    11.363518 
  159200          796   0.67379126    2.9963979    4.2528983    9.0961821     13.34908    11.334113 
  159300        796.5   0.63106026  -0.48796624     8.579624    8.5193136    17.098938    11.306159 
  159400          797   0.40304183   0.67853274    6.5794899    5.4410648    12.020555    11.277725 
  159500        797.5   0.62204711    3.9440424    7.3829333    8.3976359    15.780569    11.249849 
  159600          798   0.47362929     3.499132    8.8308043    6.3939954      15.2248    11.223151 
  159700        798.5   0.94658785   0.77253545    4.2979671    12.778936    17.076903    11.197131 
  159800          799   0.60866554   -1.8594189    7.3426972    8.2169848    15.559682    11.171585 
  159900        799.5   0.61498515    3.7374095    6.1260295    8.3022995    14.428329    11.146748 
  160000          800   0.72482426    2.7330486    3.0393826    9.7851275     12.82451    11.122868 
  160100        800.5   0.60121245     1.020383    5.1221487    8.1163681    13.238517    11.099868 
  160200          801   0.52559426    1.8107159    5.2216988    7.0955225    12.317221    11.078761 
  160300        801.5   0.42673822    1.7960341    5.7230473    5.7609659    11.484013    11.059312 
  160400          802   0.39096221    3.9265055    4.4087811    5.2779898    9.6867709    11.040765 
  160500        802.5   0.47846804   -1.0473028    4.8888225    6.4593185    11.348141    11.023416 
  160600          803   0.52787896    2.3674836    6.7011022    7.1263659    13.827468    11.007046 
  160700        803.5   0.42322044    6.1781795    6.0454827     5.713476    11.758959    10.991916 
  160800          804    0.3577687    3.5332142    6.7890432    4.8298774    11.618921    10.978502 
  160900        804.5   0.40786865  -0.58917275    5.2443693    5.5062268    10.750596     10.96676 
  161000          805    0.7661005    2.0138553    4.3851343    10.342357    14.727491    10.956345 
  161100        805.5   0.52717717    3.4175081    6.4715507    7.1168918    13.588443    10.946823 
  161200          806   0.48755283    2.5278667    5.9713358    6.5819632    12.553299    10.938285 
  161300        806.5   0.53726793   0.34801253    6.1300816    7.2531171    13.383199    10.931385 
  161400          807   0.51343524    4.3629888     6.430748    6.9313757    13.362124    10.926328 
  161500        807.5   0.58936342    2.7191276    7.0218728    7.9564062    14.978279    10.922867 
  161600          808    0.2750931   -3.2304892    7.7121679    3.7137569    11.425925    10.920315 
  161700        808.5   0.82657931    2.7330813    3.4054839    11.158821    14.564305     10.91904 
  161800          809   0.70098678    8.0404333    10.569162    9.4633216    20.032484    10.919472 
  161900        809.5   0.58454635  -0.30963163    9.9775964    7.8913758    17.868972     10.92205 
  162000          810   0.55570279  -0.17207258    6.8575024    7.5019876     14.35949    10.926226 
  162100        810.5   0.43913132    6.7521232    7.5346786    5.9282729    13.462952    10.931172 
  162200          811    0.6064791   -1.4337505     5.821049    8.1874678    14.008517     10.93719 
  162300        811.5   0.57042071    0.1919977    8.7692315    7.7006796    16.469911    10.944388 
  162400          812   0.59674317    1.5628717    6.0536691    8.0560329    14.109702    10.953541 
  162500        812.5   0.46910365    1.8093709    6.7947971    6.3328993    13.127696    10.963333 
  162600          813   0.49140283    1.7858505    6.6091543    6.6339382    13.243093    10.974374 
  162700        813.5     0.573145    2.6109241    4.0925252    7.7374575    11.829983     10.98656 
  162800          814   0.37838466    1.0434923    5.7400146     5.108193    10.848208    11.000817 
  162900        814.5   0.32525168    3.3590426    4.0048578    4.3908977    8.3957555    11.016437 
  163000          815   0.37017605    1.1868823    6.4981978    4.9973767    11.495574     11.03367 
  163100        815.5   0.34828502    1.8315502    6.5951433    4.7018478    11.296991    11.051684 
  163200          816   0.53529538  -0.29085215    4.0063952    7.2264876    11.232883    11.070579 
  163300        816.5   0.41476044   0.95088831    2.6961543    5.5992659    8.2954203    11.090808 
  163400          817   0.48275613    4.8678758    6.2123193    6.5172077    12.729527    11.112309 
  163500        817.5   0.51942618    3.4472815    5.3232573    7.0122534    12.335511    11.135449 
  163600          818   0.41603558   0.64757238    5.5991697    5.6164803     11.21565    11.160383 
  163700        818.5   0.40447689  -0.13743037     4.431796     5.460438     9.892234    11.187048 
  163800          819   0.46502141    4.5324746    4.2254322     6.277789    10.503221    11.214492 
  163900        819.5   0.55040888    1.2744178    7.1810488    7.4305199    14.611569    11.242995 
  164000          820   0.39616336 -0.017408047    8.1520683    5.3482053    13.500274    11.272873 
  164100        820.5   0.64423771    2.8246734     5.151687    8.6972091    13.848896     11.30394 
  164200          821   0.55234086    1.7305905    2.2816577    7.4566016    9.7382592    11.335658 
  164300        821.5   0.40117205   0.43421878    4.6356944    5.4158227    10.051517    11.368578 
  164400          822   0.33830668    2.3864155    5.9735704    4.5671402    10.540711    11.402542 
  164500        822.5    0.3367928   -1.0419476    7.2417479    4.5467028    11.788451    11.438437 
  164600          823   0.45329534     2.467188    8.2870327    6.1194871     14.40652    11.474293 
  164700        823.5   0.48399473   0.37774638    6.6767856    6.5339289    13.210715    11.511852 
  164800          824   0.39716961   0.84550718    6.4045995    5.3617897    11.766389    11.550815 
  164900        824.5   0.52895774    1.1432663    4.6428077    7.1409295    11.783737    11.590089 
  165000          825   0.46723103    2.6521034    4.4688935    6.3076189    10.776512    11.629671 
  165100        825.5   0.41620538  0.039955207    4.5336004    5.6187727    10.152373     11.66989 
  165200          826   0.47802184    2.3986704    7.4720525    6.4532949    13.925347    11.710911 
  165300        826.5   0.40294884    1.0777809    5.3143072    5.4398093    10.754117    11.753269 
  165400          827   0.81306631   0.41253696    4.8084188    10.976395    15.784814    11.796404 
  165500        827.5   0.65762253  -0.31449886    6.1043327    8.8779041    14.982237    11.840657 
  165600          828     0.789896    4.0184916    4.3284028    10.663596    14.991999    11.885392 
  165700        828.5   0.49097212    1.1413006    7.0383027    6.6281236    13.666426    11.932202 
  165800          829   0.56028597    1.2590886    6.2282603    7.5638607    13.792121    11.979252 
  165900        829.5   0.50296773   0.35714993    4.0806755    6.7900643     10.87074    12.026962 
  166000          830   0.55210339    2.0624626    10.112947    7.4533958    17.566343    12.075373 
  166100        830.5   0.79093168    0.7083034    7.7084984    10.677578    18.386076     12.12473 
  166200          831   0.80172791    2.8558624     6.455075    10.823327    17.278402    12.174845 
  166300        831.5    0.6277722  -0.34493031    6.0459249    8.4749246     14.52085    12.225983 
  166400          832   0.34120293   -1.9456243    10.709332    4.6062396    15.315572    12.277312 
  166500        832.5   0.33672677    4.8670681    9.1970963    4.5458114    13.742908    12.328558 
  166600          833    0.5832317  -0.71643201    5.7470866     7.873628    13.620715    12.381597 
  166700        833.5   0.57654246    1.8670584    3.5841527    7.7833232    11.367476     12.43434 
  166800          834   0.58588014   -2.8391231    7.8240713     7.909382    15.733453    12.487868 
  166900        834.5   0.57971327    5.2680052     6.211103    7.8261292    14.037232    12.540694 
  167000          835   0.82841781    2.6075463    3.8264712     11.18364    15.010112    12.595079 
  167100        835.5    0.6445487   -2.2301899    7.2252742    8.7014074    15.926682    12.651221 
  167200          836   0.35587871   0.97908488    8.4826412    4.8043626    13.287004    12.708025 
  167300        836.5   0.63295805    1.1077677     7.421589    8.5449337    15.966523    12.764448 
  167400          837   0.60902926   0.21701271    8.3921646    8.2218951     16.61406    12.822035 
  167500        837.5   0.62727177    6.4315564    5.8627598    8.4681688    14.330929    12.881452 
  167600          838   0.65561656    2.3690642    6.2732384    8.8508236    15.124062    12.943353 
  167700        838.5   0.53457926   0.48243766    4.6633768      7.21682    11.880197    13.007246 
  167800          839   0.42710175    2.5876264    3.2479789    5.7658736    9.0138525    13.070372 
  167900        839.5   0.31661564   -1.4090087    6.6290503    4.2743111    10.903361    13.134557 
  168000          840   0.43261008  -0.92790788    6.5771474    5.8402361    12.417384    13.199622 
  168100        840.5   0.67614029   -1.7018675    3.4479004    9.1278939    12.575794    13.265202 
  168200          841   0.56113513   0.84819549     3.277949    7.5753243    10.853273    13.331128 
  168300        841.5   0.56822074    2.1875163    9.3424843      7.67098    17.013464    13.398287 
  168400          842   0.43026072    2.5073956    10.574422    5.8085197    16.382942    13.467803 
  168500        842.5   0.81802287    2.2056039    5.1989236    11.043309    16.242232    13.539253 
  168600          843   0.58640205   -1.9993032    4.1395279    7.9164277    12.055956     13.61231 
  168700        843.5   0.46487005    5.2506587    11.768485    6.2757457     18.04423    13.686031 
  168800          844   0.43293601     2.936718     8.229608    5.8446361    14.074244    13.762349 
  168900        844.5   0.68746754   0.46432394     9.775243    9.2808118    19.056055    13.840531 
  169000          845   0.56394479   0.38741527    3.7425349    7.6132547     11.35579    13.919884 
  169100        845.5   0.56185346  -0.76361092    6.1793913    7.5850217    13.764413    14.000318 
  169200          846     0.686867    2.0036928    6.8560869    9.2727046    16.128791    14.082285 
  169300        846.5   0.52611589    1.9476717    3.7733956    7.1025645     10.87596     14.16515 
  169400          847   0.26267997  -0.64269045    5.1373085    3.5461797    8.6834882    14.248591 
  169500        847.5   0.65407387    1.4075652    5.1971939    8.8299972    14.027191     14.33239 
  169600          848   0.45813983  0.013445036    7.9871231    6.1848877    14.172011    14.417543 
  169700        848.5   0.92233173  0.040678292    7.3841218    12.451478      19.8356    14.503192 
  169800          849   0.63971987    2.3739495    7.0727872    8.6362182    15.709005    14.589446 
  169900        849.5    0.4808602    1.9055255    5.3201936    6.4916126    11.811806    14.675883 
  170000          850   0.52799189   -2.0743677    6.2660259    7.1278905    13.393916    14.763335 
  170100        850.5   0.70794789 -0.0094101144    3.9133254    9.5572965    13.470622    14.851847 
  170200          851    0.5128623     3.787276    6.4545675     6.923641    13.378209    14.940637 
  170300        851.5   0.49002925    0.8024867    5.4081554    6.6153949     12.02355    15.030683 
  170400          852   0.34098592   0.85447549    4.2282361    4.6033099     8.831546    15.121238 
  170500        852.5   0.62579515   0.57756619    4.6752539    8.4482346    13.123488    15.211479 
  170600          853   0.62022841   0.25254854    3.3670274    8.3730835    11.740111    15.301265 
  170700        853.5   0.52917285    3.0974247    7.7316526    7.1438335    14.875486    15.390966 
  170800          854   0.53501788  -0.18390144    5.3494802    7.2227414    12.572222    15.481656 
  170900        854.5   0.34730289  -0.27498802    5.7501322     4.688589    10.438721    15.573611 
  171000          855   0.42201567   0.67759609    4.5575187    5.6972115     10.25473    15.665757 
  171100        855.5   0.41683811  0.067623123    4.0537181    5.6273144    9.6810325    15.757334 
  171200          856   0.24073143  -0.25208048    6.8435618    3.2498743    10.093436    15.847875 
  171300        856.5   0.38054236    0.7596031    4.4930963    5.1373218    9.6304181    15.938297 
  171400          857     0.290194   0.97225753    5.6245722     3.917619    9.5421912    16.028499 
  171500        857.5   0.53370411  -0.78787428    3.6593685    7.2050054    10.864374    16.118269 
  171600          858   0.55357285    1.7610495    6.9269636    7.4732335    14.400197    16.207314 
  171700        858.5   0.60678648  -0.66970469    8.3366406    8.1916175    16.528258     16.29634 
  171800          859   0.44999632  -0.93618615    5.3479251    6.0749503    11.422875    16.384419 
  171900        859.5   0.32995164    0.8639082    6.9566441    4.4543471    11.410991    16.472111 
  172000          860   0.69428918    1.2335393    4.5954745    9.3729039    13.968378    16.559801 
  172100        860.5   0.38846804  -0.86032833    8.7618224    5.2443185    14.006141    16.647476 
  172200          861   0.44572131  -0.60097263    5.2609104    6.0172377    11.278148    16.735479 
  172300        861.5   0.30241053    1.2590959    5.8931098    4.0825422     9.975652      16.8238 
  172400          862   0.50587112    1.6378046     7.741202    6.8292601    14.570462    16.912058 
  172500        862.5   0.59267774   -1.2654499    9.2240463    8.0011495    17.225196    16.999491 
  172600          863   0.58897871   0.83052498    5.0564832    7.9512126    13.007696    17.085563 
  172700        863.5   0.45217541  -0.54903017    5.2922046    6.1043681    11.396573    17.171166 
  172800          864   0.49149129  -0.60993802    4.2493462    6.6351324    10.884479    17.255516 
  172900        864.5   0.63411917  0.040611677    4.1422537    8.5606088    12.702862    17.338508 
  173000          865   0.60594875    1.2685492    7.0864386    8.1803081    15.266747    17.420439 
  173100        865.5   0.55392389    1.0046256    7.9016854    7.4779725    15.379658     17.50306 
  173200          866    0.4037329    1.3080443     6.875708    5.4503942    12.326102     17.58589 
  173300        866.5   0.71478729  0.072703258    3.6731305    9.6496285    13.322759    17.668631 
  173400          867   0.38180864   0.58997796    6.5373443    5.1544166    11.691761    17.750475 
  173500        867.5   0.63389551     1.454178    4.9957416    8.5575894    13.553331    17.831085 
  173600          868   0.56031259   -1.7612659    8.7851366    7.5642199    16.349357    17.910808 
  173700        868.5   0.86281833   -1.0807331    7.2970324    11.648047     18.94508    17.989785 
  173800          869     0.907246    1.0521358    8.1934052    12.247821    20.441226    18.068465 
  173900        869.5   0.77912693    1.1058877     7.384962    10.518214    17.903176    18.147148 
  174000          870   0.51589712  -0.77452225    8.7470475    6.9646111    15.711659    18.225521 
  174100        870.5   0.63655684    1.8356657    7.6108176    8.5935173    16.204335    18.302073 
  174200          871   0.71413418   0.52538971    4.1297644    9.6408114    13.770576    18.377821 
  174300        871.5   0.61471998   -1.1980474    3.9806439    8.2987197    12.279364    18.451681 
  174400          872   0.57192446   0.68762036    3.5869883    7.7209802    11.307968    18.524554 
  174500        872.5   0.64360808   0.89695713    6.0851319    8.6887091    14.773841    18.598107 
  174600          873    0.6086393    1.1847234    5.6758318    8.2166305    13.892462    18.670915 
  174700        873.5   0.61747804   -1.4132742    7.6004357    8.3359536    15.936389     18.74186 
  174800          874   0.83718651      0.84539    5.8577721    11.302018     17.15979    18.812519 
  174900        874.5   0.67554582   0.35177115    5.6032314    9.1198686      14.7231    18.882612 
  175000          875    0.4584294  -0.70258911    5.9660263    6.1887969    12.154823     18.95212 
  175100        875.5   0.66845332  0.022324048    4.2083162    9.0241198    13.232436    19.020823 
  175200          876   0.56538109  -0.85157667    6.9882297    7.6326447    14.620874    19.087909 
  175300        876.5   0.50403713  -0.49914098     4.451073    6.8045012    11.255574    19.153082 
  175400          877   0.61620918   0.51194908    5.8163274     8.318824    14.135151    19.217186 
  175500        877.5   0.46266142  -0.81352076    8.5564674    6.2459292    14.802397    19.280113 
  175600          878   0.88159356  -0.58723432    5.5483118    11.901513    17.449825    19.342406 
  175700        878.5   0.64412466    2.1472763    7.5873612     8.695683    16.283044     19.40396 
  175800          879   0.78240125  -0.75291547    3.4058987    10.562417    13.968316    19.464674 
  175900        879.5   0.38512615 -0.085504419    5.7080207     5.199203    10.907224    19.523704 
  176000          880   0.79159718   0.71946717    6.1931458    10.686562    16.879708    19.581968 
  176100        880.5   0.47939049  -0.12753699    7.5658183    6.4717716     14.03759    19.640435 
  176200          881   0.56509702   0.31444682    5.0188043    7.6288097    12.647614      19.6979 
  176300        881.5   0.67610636  -0.20060098    4.3730181    9.1274359    13.500454    19.753643 
  176400          882   0.52376029   -1.0922769     8.691332    7.0707639    15.762096    19.808862 
  176500        882.5    1.0137629   0.32034833    4.4402543    13.685799    18.126053    19.860922 
  176600          883   0.50128473    2.4517807    10.446279    6.7673438    17.213623    19.911598 
  176700        883.5   0.89981356  -0.13933599     8.690201    12.147483    20.837684    19.962408 
  176800          884   0.81676234    2.9330371    9.4998364    11.026292    20.526128     20.01359 
  176900        884.5   0.60418233  0.077354878    8.2677686    8.1564615     16.42423    20.065331 
  177000          885    0.7794824  -0.65313569      7.00698    10.523012    17.529992    20.116015 
  177100        885.5   0.73120414    1.0999049    8.4599206    9.8712558    18.331176    20.165679 
  177200          886   0.59463749   -1.4239495     11.87764    8.0276061    19.905246     20.21547 
  177300        886.5   0.75276658    1.8338493    8.9973224    10.162349    19.159671    20.264605 
  177400          887   0.51559184   -2.3144371    9.0029201    6.9604898     15.96341    20.312425 
  177500        887.5   0.57982084    2.0383562    8.0723818    7.8275814    15.899963    20.358824 
  177600          888   0.56490915   -0.5227642    5.1120027    7.6262735    12.738276    20.404228 
  177700        888.5   0.72898169   -1.1425496    5.6981575    9.8412528     15.53941    20.448225 
  177800          889   0.41177862    1.4612636    6.8813997    5.5590113    12.440411    20.491062 
  177900        889.5   0.73400983   -1.1785461    5.6765759    9.9091328    15.585709     20.53345 
  178000          890   0.52672946   0.76917481     6.899654    7.1108477    14.010502    20.574733 
  178100        890.5   0.74093559   0.11957397    5.0578402     10.00263    15.060471    20.615183 
  178200          891      0.61099  -0.77522425    7.9379923     8.248365    16.186357    20.654883 
  178300        891.5   0.74066696    2.2043656    8.0801844     9.999004    18.079188    20.693259 
  178400          892   0.80724415    1.0601585    7.5936186    10.897796    18.491415    20.730906 
  178500        892.5   0.70503784   -1.7949233    6.3315165    9.5180108    15.849527    20.768085 
  178600          893   0.57731584  -0.11519951    5.7691852    7.7937638    13.562949      20.8048 
  178700        893.5   0.58870332  -0.15199285     6.138098    7.9474949    14.085593    20.841577 
  178800          894   0.49294779   -1.2753404    8.5706119    6.6547952    15.225407    20.877718 
  178900        894.5   0.45205432    2.2404039    6.0665026    6.1027333    12.169236    20.912527 
  179000          895   0.37588885     0.431083    4.0842567    5.0744995    9.1587562    20.947218 
  179100        895.5   0.64289425  -0.35781742       3.5862    8.6790724    12.265272    20.981437 
  179200          896   0.41476367   0.74170455    6.7317394    5.5993095    12.331049    21.014645 
  179300        896.5   0.51535985   0.50221072    4.4399007     6.957358    11.397259    21.048281 
  179400          897   0.50923865   0.79846994    4.9979901    6.8747218    11.872712    21.082024 
  179500        897.5    0.5772259  -0.17940887    4.1717977    7.7925496    11.964347    21.114049 
  179600          898   0.46570599  -0.45579387    6.5463323    6.2870309    12.833363     21.14433 
  179700        898.5   0.69259541     1.317263    9.0154493    9.3500381    18.365487    21.172483 
  179800          899   0.72194257    -0.841203     5.098113    9.7462246    14.844338    21.198732 
  179900        899.5   0.40839008   0.61412989    5.3315107    5.5132661    10.844777     21.22338 
  180000          900   0.50142733  -0.19205432    3.2047536    6.7692689    9.9740225    21.246865 
  180100        900.5   0.58557951  -0.19379738    3.5305436    7.9053234    11.435867    21.268068 
  180200          901   0.54267225  -0.57027624    5.1218963    7.3260754    12.447972    21.287576 
  180300        901.5   0.50106899  -0.61611299    4.7752047    6.7644313    11.539636    21.304742 
  180400          902   0.66259183    2.0730319    7.3803943    8.9449897    16.325384    21.321484 
  180500        902.5   0.82979839   -1.3930723    8.5167905    11.202278    19.719069    21.338259 
  180600          903   0.75599273   0.73289194    6.0262726    10.205902    16.232174    21.354255 
  180700        903.5   0.47243987   0.68491406    7.6915677    6.3779382    14.069506    21.369206 
  180800          904   0.43041257  -0.78615259     4.529538    5.8105696    10.340108    21.383908 
  180900        904.5   0.51912672    0.6131067    3.3620036    7.0082107    10.370214    21.397729 
  181000          905   0.49410239 -0.019653744    5.2980869    6.6703823    11.968469    21.410709 
  181100        905.5   0.39658977   0.77019715     6.216793    5.3539619    11.570755    21.421705 
  181200          906    0.6142079   0.42080494    2.5798615    8.2918066    10.871668    21.433115 
  181300        906.5   0.58516378   -1.3741876    5.0658489     7.899711     12.96556     21.44409 
  181400          907   0.36434873   0.75425843    7.1039586    4.9187079    12.022667    21.453309 
  181500        907.5   0.56765428  -0.49622096    7.4911572    7.6633327     15.15449    21.462088 
  181600          908   0.86225289   0.83991141    9.2539846    11.640414    20.894399    21.470106 
  181700        908.5    1.2647772    1.6265048     5.065546    17.074493    22.140039    21.477565 
  181800          909    0.7948687    -1.623467    8.8610583    10.730728    19.591786    21.484111 
  181900        909.5   0.57390507    1.2760474    4.8243494    7.7477185    12.572068    21.487892 
  182000          910     0.518993   0.84169328    3.3522663    7.0064055    10.358672    21.490508 
  182100        910.5   0.42044738   -1.0631672    7.1616533    5.6760396    12.837693    21.492206 
  182200          911    0.5323765   -0.2476168     8.715942    7.1870828    15.903025    21.492324 
  182300        911.5   0.78941696   0.94734481    5.6002756    10.657129    16.257405    21.492564 
  182400          912   0.58730498    1.3672842    8.2029357    7.9286172    16.131553     21.49386 
  182500        912.5   0.52121626   -2.0531079    8.3444071    7.0364195    15.380827    21.493046 
  182600          913   0.42792389     1.343658    6.2628612    5.7769725    12.039834    21.490709 
  182700        913.5   0.47056793   0.76955315    7.2909296     6.352667    13.643597    21.487277 
  182800          914   0.45946707 0.0067251197    6.6449395    6.2028055    12.847745    21.482764 
  182900        914.5   0.79046839   0.42793267    9.4327165    10.671323     20.10404    21.477408 
  183000          915   0.88265973  -0.14151182    5.1094356    11.915906    17.025342    21.470797 
  183100        915.5   0.82412295   0.28924495    5.0807398     11.12566      16.2064    21.463302 
  183200          916   0.34110503   0.81117537    4.5760192    4.6049179    9.1809371    21.454705 
  183300        916.5   0.57889751  -0.41474868    4.0751748    7.8151164    11.890291    21.445523 
  183400          917   0.59699268   0.33285141    4.8463673    8.0594012    12.905769    21.435295 
  183500        917.5   0.53043201   0.63067595    5.8040637    7.1608321    12.964896    21.424433 
  183600          918   0.64185053   -1.0027645    4.4084077    8.6649822     13.07339    21.412322 
  183700        918.5   0.58022932  -0.10246925    6.5502681    7.8330958    14.383364    21.398289 
  183800          919   0.50798351   0.69013523    7.2501292    6.8577773    14.107907    21.381695 
  183900        919.5   0.42599936   0.57022395      8.48875    5.7509913    14.239741    21.363938 
  184000          920   0.69720529   0.21167238    5.3434213    9.4122714    14.755693    21.345736 
  184100        920.5   0.49048904   0.22129635    5.8141395    6.6216021    12.435742    21.326798 
  184200          921   0.46582905   -1.2457046    6.5903825    6.2886922    12.879075    21.306634 
  184300        921.5   0.60630813    1.1042994    7.4853319    8.1851597    15.670492    21.284851 
  184400          922   0.52776617  -0.91508479    5.6976026    7.1248434    12.822446    21.262404 
  184500        922.5    0.4762125  0.057410766    5.2100676    6.4288687    11.638936    21.238716 
  184600          923    0.5120757  -0.71952811     4.418706     6.913022    11.331728    21.213916 
  184700        923.5   0.83324036    1.6984124    6.4503763    11.248745    17.699121    21.188586 
  184800          924   0.86980961  -0.44796359    3.6821059     11.74243    15.424536    21.162616 
  184900        924.5   0.50999394  0.040300075    5.2642993    6.8849182    12.149218    21.135143 
  185000          925   0.39851621   0.11679538    5.0049653    5.3799688    10.384934     21.10661 
  185100        925.5    0.2972878  -0.96187732    5.1306374    4.0133853    9.1440226    21.077113 
  185200          926   0.32356033   0.60829333    5.5650777    4.3680645    9.9331422    21.046605 
  185300        926.5   0.30867269  -0.38600344    3.2550773    4.1670814    7.4221587    21.014791 
  185400          927   0.43794837   -1.0866915    5.8144098     5.912303    11.726713    20.981481 
  185500        927.5   0.59124003  -0.49525687    4.3673004    7.9817405    12.349041    20.946799 
  185600          928   0.54272495    1.1298306    4.5902675    7.3267869    11.917054    20.911016 
  185700        928.5   0.55722833  -0.73141738    6.0836169    7.5225825    13.606199    20.873977 
  185800          929    0.4310323    2.1547316    5.7013262     5.818936    11.520262    20.836093 
  185900        929.5   0.26692902   0.53192984    6.2022071    3.6035418    9.8057489    20.798593 
  186000          930   0.40473892  -0.14397712     6.615574    5.4639754    12.079549    20.760141 
  186100        930.5   0.39611701    1.5363399    5.9432226    5.3475797    11.290802    20.720815 
  186200          931   0.56501515   -1.2336325     5.970793    7.6277045    13.598497    20.680772 
  186300        931.5   0.51990712   0.56582246    8.6696697    7.0187462    15.688416    20.640814 
  186400          932    0.4162586   0.95650014    6.2286379    5.6194911    11.848129     20.60151 
  186500        932.5   0.66139031    -1.404063    5.9216987    8.9287692    14.850468    20.561264 
  186600          933   0.59467656    1.0810354    5.3135717    8.0281335    13.341705    20.519748 
  186700        933.5   0.59630414   0.21558411     5.112794    8.0501058      13.1629    20.477553 
  186800          934   0.73530796     1.086457    6.4858084    9.9266575    16.412466    20.434689 
  186900        934.5   0.51467254  -0.68238794    6.5398249    6.9480793    13.487904    20.393327 
  187000          935   0.27722378  -0.79364485    6.6673928    3.7425211    10.409914    20.352499 
  187100        935.5   0.59602024   0.39846577    4.1202193    8.0462732    12.166493    20.311698 
  187200          936   0.48956318   0.83513174    4.1042708    6.6091029    10.713374      20.2705 
  187300        936.5   0.44063885  -0.79009746    5.4666766    5.9486245    11.415301    20.228619 
  187400          937   0.49190729   0.81519188    5.1561711    6.6407485     11.79692    20.185307 
  187500        937.5    0.4456849  -0.56915595    4.5801877    6.0167462    10.596934    20.141071 
  187600          938   0.37183292   0.21970899     3.985331    5.0197445    9.0050755    20.096281 
  187700        938.5   0.45955927  -0.37818622    3.0419211    6.2040502    9.2459713    20.050903 
  187800          939    0.3944168 -0.034096567    2.0971202    5.3246268     7.421747    20.004895 
  187900        939.5   0.37503532   -1.0616222    4.0727815    5.0629769    9.1357584    19.957671 
  188000          940   0.57574164  -0.57604179    5.9408785    7.7725121    13.713391    19.909034 
  188100        940.5   0.44999749  -0.56307448    7.6355614    6.0749661    13.710528    19.859573 
  188200          941    0.4488106   0.90944785    5.8451387    6.0589431    11.904082    19.809553 
  188300        941.5   0.47571803   -1.4437299    8.3567757    6.4221934    14.778969     19.75947 
  188400          942   0.44014555   0.74129801    6.2781017     5.941965    12.220067    19.708656 
  188500        942.5   0.61872627   0.11449196    5.2501916    8.3528047    13.602996     19.65706 
  188600          943   0.55016464  -0.98307519    6.6234466    7.4272226    14.050669    19.604816 
  188700        943.5   0.65148523    2.2901406    4.6554509    8.7950506    13.450501    19.552293 
  188800          944   0.34883815    1.1158521    7.2010361     4.709315    11.910351    19.499783 
  188900        944.5   0.53301257 -0.059107218    3.1082263    7.1956696    10.303896    19.446725 
  189000          945   0.55624687   0.30954943    5.7248848    7.5093328    13.234218    19.393694 
  189100        945.5   0.50494226   0.95749459    5.3687449    6.8167205    12.185465    19.340636 
  189200          946   0.69581635   0.57568054    3.9917726    9.3935207    13.385293     19.28652 
  189300        946.5   0.47471893    0.1291724    4.1891135    6.4087055    10.597819    19.232144 
  189400          947    0.4922426    2.4537757    5.9675489    6.6452751    12.612824    19.176732 
  189500        947.5   0.68043578  -0.45530246    4.2866675     9.185883    13.472551    19.121475 
  189600          948   0.28743684    1.8338028    9.8706863    3.8803974    13.751084    19.065565 
  189700        948.5   0.57713336   0.98190131    4.9591411    7.7913003    12.750441    19.009789 
  189800          949   0.48220982  -0.87955767    5.0206224    6.5098325    11.530455    18.953186 
  189900        949.5   0.46645709   0.58111899    4.0624508    6.2971707    10.359622     18.89565 
  190000          950   0.34747784   0.59777736    6.1766049    4.6909509    10.867556    18.837639 
  190100        950.5   0.53076092   0.70237073    4.3802287    7.1652725    11.545501    18.779966 
  190200          951   0.43298168  -0.51926714    7.8040825    5.8452527    13.649335    18.722221 
  190300        951.5   0.58672581  -0.93969302     5.293452    7.9207985     13.21425    18.663587 
  190400          952   0.58023379    1.3948406    5.5233762    7.8331562    13.356532    18.604286 
  190500        952.5   0.52616511  -0.80511549    6.1828339     7.103229    13.286063     18.54487 
  190600          953   0.49773345   0.13582289    5.7275234    6.7194016    12.446925    18.484675 
  190700        953.5    0.4860177     1.787024    4.9006329     6.561239    11.461872    18.423611 
  190800          954    0.5060961  -0.69153449    3.4992502    6.8322973    10.331547    18.363167 
  190900        954.5    0.5320991   0.91062431    4.7504365    7.1833378    11.933774    18.302882 
  191000          955   0.37778047  -0.93148386    5.4138153    5.1000363    10.513852    18.242311 
  191100        955.5   0.51654565   0.86598029    6.3074551    6.9733662    13.280821     18.18088 
  191200          956   0.68337599   0.74579756    4.7639792    9.2255759    13.989555    18.119217 
  191300        956.5   0.52490107   0.79189327    5.3129248    7.0861644    12.399089    18.057675 
  191400          957   0.70997399   -1.5732103    7.8673342    9.5846488    17.451983    17.995541 
  191500        957.5   0.80220433  -0.42346531    8.1069844    10.829758    18.936743    17.932857 
  191600          958   0.65409182    2.9759214    9.4770135    8.8302395    18.307253    17.869821 
  191700        958.5    0.7944294   0.28477729    8.8563102    10.724797    19.581107    17.807981 
  191800          959   0.66729863   0.88426393    9.0523604    9.0085315    18.060892    17.748207 
  191900        959.5   0.65551444  -0.21164096    7.8484078     8.849445    16.697853    17.690092 
  192000          960   0.69710086   -1.0577188    5.4114042    9.4108617    14.822266    17.632479 
  192100        960.5   0.71627381  0.059653895    5.4825915    9.6696964    15.152288    17.574786 
  192200          961   0.74807485   0.55318702    4.4371625     10.09901    14.536173    17.516878 
  192300        961.5   0.54422299    1.0552018    3.8886971    7.3470104    11.235708    17.458646 
  192400          962   0.33815274  -0.57699322    4.4207015     4.565062    8.9857634    17.400495 
  192500        962.5   0.36524006    1.2557981    7.1957413    4.9307408    12.126482    17.341759 
  192600          963   0.46972003   -1.2654713    7.3329368    6.3412204    13.674157    17.282769 
  192700        963.5   0.69444364   0.24649266     6.716863    9.3749891    16.091852     17.22332 
  192800          964   0.60867769   0.28987902    4.9310634    8.2171488    13.148212    17.163413 
  192900        964.5   0.43519518  0.052602272    5.2354631    5.8751349    11.110598    17.103708 
  193000          965   0.34504804    2.2409465    6.9167208    4.6581486    11.574869    17.043673 
  193100        965.5   0.58370953   -1.5291979    4.4652717    7.8800787     12.34535    16.984027 
  193200          966   0.53879292 -0.018660897    4.5025256    7.2737044     11.77623    16.923991 
  193300        966.5   0.52901173    1.0267647    5.2662008    7.1416584    12.407859    16.864033 
  193400          967   0.47741604    2.4217281    9.3430179    6.4451165    15.788134    16.805476 
  193500        967.5    0.4076109   0.29280635    7.3103305    5.5027471    12.813078    16.748755 
  193600          968   0.53185143  -0.11258588    9.1264238    7.1799943    16.306418     16.69398 
  193700        968.5   0.65886879   0.52852954    4.7275676    8.8947286    13.622296    16.641261 
  193800          969   0.61984582    2.3266303    4.5511842    8.3679186    12.919103    16.589686 
  193900        969.5   0.67341039    1.3082035    6.4129847    9.0910403    15.504025    16.539231 
  194000          970   0.61175853   -0.0269744    5.7036527    8.2587402    13.962393    16.488777 
  194100        970.5   0.77442873   0.50169736     7.133574    10.454788    17.588362    16.438215 
  194200          971    0.5169967   -1.6300467    7.4848389    6.9794554    14.464294    16.387324 
  194300        971.5   0.61665581   -1.8242163    6.1140738    8.3248534    14.438927    16.336541 
  194400          972   0.57321871    2.2588015    9.8967276    7.7384526     17.63518    16.286039 
  194500        972.5   0.72127899    3.3675578    8.4389641    9.7372663     18.17623    16.236906 
  194600          973   0.61317581   -1.7303253    6.6715379    8.2778734    14.949411     16.18898 
  194700        973.5   0.60581913   -1.5921749    4.9154467    8.1785582    13.094005    16.140968 
  194800          974   0.52842888    1.4974175    10.690282    7.1337899    17.824072    16.093188 
  194900        974.5   0.53842751    1.1949145    8.9663484    7.2687714     16.23512    16.047709 
  195000          975    0.6114502  -0.29555437    6.9734199    8.2545778    15.227998    16.002629 
  195100        975.5   0.96431541  -0.92273902    7.1439189    13.018258    20.162177    15.957447 
  195200          976   0.56990932   0.25845758    8.5528828    7.6937758    16.246659    15.912391 
  195300        976.5    0.4829719   -2.2302862    6.5340638    6.5201207    13.054184    15.867395 
  195400          977   0.47894216   0.18496435    5.1865098    6.4657192    11.652229    15.821921 
  195500        977.5   0.37975993   -1.5375668    6.9064753     5.126759    12.033234    15.776255 
  195600          978    0.4123943    1.2508212    7.2840902     5.567323    12.851413    15.730842 
  195700        978.5   0.27346113  -0.77104216    8.8274649    3.6917253     12.51919    15.685834 
  195800          979   0.37941055    1.0203802    5.5522593    5.1220425    10.674302    15.640907 
  195900        979.5   0.58241946  -0.16792437    3.3202227    7.8626628    11.182886    15.595974 
  196000          980   0.40910367    2.2719934     6.590057    5.5228995    12.112956    15.551008 
  196100        980.5   0.64540484  -0.40832219    6.2676727    8.7129653    14.980638    15.506648 
  196200          981   0.90687642    2.5164603    4.6555943    12.242832    16.898426    15.463627 
  196300        981.5   0.58357475  -0.26416174    7.9590245    7.8782591    15.837284    15.421987 
  196400          982   0.65491607  -0.33176868    5.4337634     8.841367     14.27513    15.381283 
  196500        982.5   0.46544232    2.4942263    6.4093612    6.2834713    12.692832    15.340593 
  196600          983   0.34761205    1.6562046    6.8931742    4.6927627    11.585937    15.300624 
  196700        983.5   0.35095564   0.54859622    9.3849786    4.7379011     14.12288    15.260479 
  196800          984   0.83977631   0.31716425    5.7797106     11.33698    17.116691    15.220125 
  196900        984.5    0.6588115   -1.0457372      7.77468    8.8939553    16.668635     15.17953 
  197000          985   0.83104938   0.91366269    4.6738594    11.219167    15.893026    15.139162 
  197100        985.5   0.64900297   -1.0834199    6.3948225    8.7615401    15.156363    15.098873 
  197200          986   0.73286576     1.782487    6.5661309    9.8936878    16.459819    15.058354 
  197300        986.5   0.47163705    1.1368353    4.6117262    6.3671001    10.978826    15.017675 
  197400          987   0.73779289  -0.58648764    4.8313329     9.960204    14.791537    14.976807 
  197500        987.5   0.38351112    2.1900245    9.8654145    5.1774001    15.042815    14.935514 
  197600          988   0.56088558   -1.0184606    5.1211487    7.5719553    12.693104    14.894772 
  197700        988.5   0.67392941    1.1149902    5.2624086     9.098047    14.360456     14.85435 
  197800          989   0.62480796  0.092766659    3.3918031    8.4349075    11.826711    14.813985 
  197900        989.5   0.60875588  0.080830813    5.8431024    8.2182044    14.061307     14.77384 
  198000          990   0.78651876   0.65993445    5.8877992    10.618003    16.505802    14.734097 
  198100        990.5   0.45116397    2.6421166    7.9550656    6.0907136    14.045779    14.695116 
  198200          991   0.68264225   0.88668122    7.1047781    9.2156703    16.320448     14.65813 
  198300        991.5   0.68031743   0.69514498    6.8401236    9.1842853    16.024409    14.622222 
  198400          992   0.64728183  -0.94494884     6.582162    8.7383047    15.320467    14.586793 
  198500        992.5   0.84391843    2.9470074    6.8002363    11.392899    18.193135    14.551097 
  198600          993   0.53103298   -2.4260078    9.3623552    7.1689452      16.5313    14.515837 
  198700        993.5   0.56597374  -0.75518102    8.0771914    7.6406454    15.717837    14.481315 
  198800          994   0.52987456    2.6526547    7.0550205    7.1533066    14.208327    14.447316 
  198900        994.5   0.66546028   0.38524439     9.058877    8.9837137    18.042591     14.41431 
  199000          995   0.55703996  -0.56961711    9.3373255    7.5200395    16.857365    14.382079 
  199100        995.5    0.7655914     3.627469    7.3613437    10.335484    17.696828    14.350385 
  199200          996   0.66706483  -0.98097443    6.2070474    9.0053752    15.212423     14.32001 
  199300        996.5   0.65578064    3.0389424    5.7481755    8.8530387    14.601214    14.290251 
  199400          997   0.46103551   -1.9022242    6.8287118    6.2239794    13.052691    14.261443 
  199500        997.5    0.5347926    3.4584664    5.9420015    7.2197001    13.161702    14.233242 
  199600          998   0.63451173    0.2725296    5.7333419    8.5659083     14.29925    14.205836 
  199700        998.5   0.58366377    2.5223567     4.909706    7.8794609    12.789167    14.178443 
  199800          999   0.64753234  -0.30620614    5.6699352    8.7416865    14.411622    14.151918 
  199900        999.5   0.72536385    1.7087102    9.3074581     9.792412     19.09987    14.125754 
  200000         1000    0.5237316    3.1442169    6.6427981    7.0703767    13.713175    14.100879 
WARNING: Bond/angle/dihedral extent > half of periodic box length (../domain.cpp:906)
Loop time of 32.6798 on 1 procs for 200000 steps with 10 atoms

Performance: 2643833.252 tau/day, 6119.984 timesteps/s
46.2% CPU use with 1 MPI tasks x 1 OpenMP threads

MPI task timing breakdown:
Section |  min time  |  avg time  |  max time  |%varavg| %total
---------------------------------------------------------------
Pair    | 0.341      | 0.341      | 0.341      |   0.0 |  1.04
Bond    | 0.39906    | 0.39906    | 0.39906    |   0.0 |  1.22
Neigh   | 0.12086    | 0.12086    | 0.12086    |   0.0 |  0.37
Comm    | 0.55767    | 0.55767    | 0.55767    |   0.0 |  1.71
Output  | 11.566     | 11.566     | 11.566     |   0.0 | 35.39
Modify  | 19.427     | 19.427     | 19.427     |   0.0 | 59.45
Other   |            | 0.2682     |            |       |  0.82

Nlocal:    10 ave 10 max 10 min
Histogram: 1 0 0 0 0 0 0 0 0 0
Nghost:    194 ave 194 max 194 min
Histogram: 1 0 0 0 0 0 0 0 0 0
Neighs:    36 ave 36 max 36 min
Histogram: 1 0 0 0 0 0 0 0 0 0

Total # of neighbors = 36
Ave neighs/atom = 3.6
Ave special neighs/atom = 4.8
Neighbor list builds = 4079
Dangerous builds = 0

# SHELL
shell copy output.dump        output_T_${T}_N_${N}_box_${box}_run_${run_tau}_tau_num_${num}.dump
shell copy output.dump        output_T_0.5_N_${N}_box_${box}_run_${run_tau}_tau_num_${num}.dump
shell copy output.dump        output_T_0.5_N_100_box_${box}_run_${run_tau}_tau_num_${num}.dump
shell copy output.dump        output_T_0.5_N_100_box_50_run_${run_tau}_tau_num_${num}.dump
shell copy output.dump        output_T_0.5_N_100_box_50_run_1000_tau_num_${num}.dump
shell copy output.dump        output_T_0.5_N_100_box_50_run_1000_tau_num_1.dump
shell echo> T_${T}.done
shell echo> T_0.5.done

#clear
#next T
#jump in.run

Total wall time: 0:00:33
