LAMMPS (3 Mar 2020)
OMP_NUM_THREADS environment is not set. Defaulting to 1 thread. (../comm.cpp:94)
  using 1 OpenMP thread(s) per MPI task
# VARIABLES
variable T         equal  0.50 #0.10 0.36 0.70  #Can loop over this variable
variable num       equal  1 #user label for the initial configuration used
variable N         equal  100 #200 # 250 300 350 # Number of molecules
variable box       equal  50 # cubic box of volume 10**3
variable t_step    equal  0.005
variable mix_steps equal  20000 # how many steps for mixing the initial configuration
variable mix_tau   equal  ${t_step}*${mix_steps} # this is the time in LJ units
variable mix_tau   equal  0.005*${mix_steps} 
variable mix_tau   equal  0.005*20000 
variable run_steps equal  20000 # steps to run simulation in order to reach steady state
variable run_tau   equal  ${t_step}*${run_steps} # this is the time in LJ units
variable run_tau   equal  0.005*${run_steps} 
variable run_tau   equal  0.005*20000 
# N is read into nunchucks.py file in args.parser

# PARAMETERS
units lj
atom_style molecular
neighbor 0.4 bin
neigh_modify every 1 delay 1 check yes
comm_modify vel yes
comm_modify cutoff 1.9
#KG added to remove "Communication cutoff 1.52 is shorter than a bond length
#based estimate of 1.87. This may lead to errors" warning.

# READ
read_data rigid_rods.file
  orthogonal box = (-10 -10 -10) to (10 10 10)
  1 by 1 by 1 MPI processor grid
WARNING: Atom style in data file differs from currently defined atom style (../read_data.cpp:514)
  reading atoms ...
  10 atoms
  scanning bonds ...
  1 = max bonds/atom
  scanning angles ...
  1 = max angles/atom
  reading bonds ...
  8 bonds
  reading angles ...
  8 angles
  2 = max # of 1-2 neighbors
  2 = max # of 1-3 neighbors
  2 = max # of 1-4 neighbors
  4 = max # of special neighbors
  special bonds CPU = 0.0107229 secs
  read_data CPU = 0.033675 secs

#  BONDS
bond_style harmonic
special_bonds lj 0 1 1
  2 = max # of 1-2 neighbors
  2 = max # of 1-3 neighbors
  2 = max # of 1-4 neighbors
  4 = max # of special neighbors
  special bonds CPU = 0.0138578 secs
bond_coeff * 500.0 0.98  # the wildcard (*) means to have the same for all bond types.

# ANGLES
angle_style harmonic
angle_coeff * 500.0  180

# PAIR lj/cut --with interactions, to steady state
pair_style lj/cut 1.0
pair_modify shift yes
pair_coeff * * 1  1.0  1.12

# THERMAL
timestep ${t_step}
timestep 0.005
thermo   100
thermo_style custom step time temp press pe ke etotal vol
thermo_modify norm no
reset_timestep 0

# FIX
fix 2 all nve
fix 3 all langevin ${T} ${T} 1 123456
fix 3 all langevin 0.5 ${T} 1 123456
fix 3 all langevin 0.5 0.5 1 123456
fix recen1 all recenter INIT INIT INIT


# DUMP OUTPUT
dump  1  all custom 1000 output.dump id mol type x y z vx vy vz


# RUN
run ${run_steps}
run 20000
Neighbor list info ...
  update every 1 steps, delay 1 steps, check yes
  max neighbors/atom: 2000, page size: 100000
  master list distance cutoff = 1.52
  ghost atom cutoff = 1.9
  binsize = 0.76, bins = 27 27 27
  1 neighbor lists, perpetual/occasional/extra = 1 0 0
  (1) pair lj/cut, perpetual
      attributes: half, newton on
      pair build: half/bin/newton
      stencil: half/bin/3d/newton
      bin: standard
Per MPI rank memory allocation (min/avg/max) = 7.836 | 7.836 | 7.836 Mbytes
Step Time Temp Press PotEng KinEng TotEng Volume 
       0            0            0 0.0014198214     1.581729            0     1.581729         8000 
     100          0.5   0.37836172 0.0021733243    3.8254344    5.1078832    8.9333175         8000 
     200            1   0.38964257  0.002305099    2.7854206    5.2601747    8.0455953         8000 
     300          1.5   0.49611821 -0.002073669     4.284413    6.6975959    10.982009         8000 
     400            2    0.5103878 0.0033460688    8.2909103    6.8902353    15.181146         8000 
     500          2.5   0.65854673 -0.00029399637    4.1033347    8.8903809    12.993716         8000 
     600            3   0.44628618 0.0026852449    7.7770671    6.0248634    13.801931         8000 
     700          3.5   0.77861454 -0.00021734254    8.8638336    10.511296     19.37513         8000 
     800            4   0.46692564 -0.0032166581     4.770789    6.3034962    11.074285         8000 
     900          4.5   0.50655722 0.0022197185    3.0230228    6.8385224    9.8615452         8000 
    1000            5   0.29250851 -0.0023093868    4.7761757    3.9488648    8.7250405         8000 
    1100          5.5   0.51084357 -0.00014237987    4.7652111    6.8963882    11.661599         8000 
    1200            6   0.48914781 -0.00085914572     7.721857    6.6034955    14.325352         8000 
    1300          6.5   0.56938326 0.00037484545    7.5716666     7.686674    15.258341         8000 
    1400            7   0.79758254 -0.0014358312    5.3336271    10.767364    16.100991         8000 
    1500          7.5   0.60768528 0.0041603161    7.7576725    8.2037513    15.961424         8000 
    1600            8   0.54003047 -0.00049272069    8.2684283    7.2904114     15.55884         8000 
    1700          8.5   0.47534133 0.0024469859    6.9484702     6.417108    13.365578         8000 
    1800            9   0.41826741 -0.0031120242    5.8792089      5.64661    11.525819         8000 
    1900          9.5   0.48927335 0.0028541355    5.7500264    6.6051902    12.355217         8000 
    2000           10   0.47258313 -0.001556323    5.2403079    6.3798722     11.62018         8000 
    2100         10.5   0.56563384 -0.0012993853    4.7961989    7.6360569    12.432256         8000 
    2200           11   0.74764006 -0.0015733452     9.247487    10.093141    19.340628         8000 
    2300         11.5   0.93286432 0.0011145456    9.9512618    12.593668     22.54493         8000 
    2400           12   0.89403257 -0.00063208586    6.6104689     12.06944    18.679909         8000 
    2500         12.5   0.51126707 -0.00079524815    5.8488669    6.9021055    12.750972         8000 
    2600           13   0.56072529 0.0015293937    5.6170503    7.5697914    13.186842         8000 
    2700         13.5   0.44563977 -0.0026775349    8.3013087    6.0161368    14.317446         8000 
    2800           14   0.59895409 0.0015873546    4.9940196    8.0858802      13.0799         8000 
    2900         14.5    0.3282291 0.00043166821    7.0752033    4.4310929    11.506296         8000 
    3000           15    0.5868328 0.0039975367     5.171991    7.9222427    13.094234         8000 
    3100         15.5    0.5729847 -0.0033120483    5.2119186    7.7352934    12.947212         8000 
    3200           16   0.60573628 0.00047614214    4.4074123    8.1774398    12.584852         8000 
    3300         16.5   0.45293752 -0.0046608109    7.9969635    6.1146566     14.11162         8000 
    3400           17   0.49737327 8.2501884e-05    4.3823776    6.7145392    11.096917         8000 
    3500         17.5    0.3168161 -0.0012536827    8.7129022    4.2770174     12.98992         8000 
    3600           18   0.54232365 -0.0033148077    5.5841945    7.3213693    12.905564         8000 
    3700         18.5   0.48891022 0.0016953784    5.2605259     6.600288    11.860814         8000 
    3800           19   0.48458312 1.3523668e-06    5.2998156    6.5418721    11.841688         8000 
    3900         19.5    0.3799439 0.00019534789    5.2029462    5.1292427    10.332189         8000 
    4000           20   0.47295827 0.0010485031    5.0108165    6.3849366    11.395753         8000 
    4100         20.5   0.30779257 -0.0022867268    5.8447465    4.1551997    9.9999462         8000 
    4200           21    0.2935935 0.00044769178    6.0493245    3.9635122    10.012837         8000 
    4300         21.5   0.41880212 0.0006371639    4.1275356    5.6538287    9.7813643         8000 
    4400           22   0.59768099 0.00084007571    5.5969745    8.0686933    13.665668         8000 
    4500         22.5   0.54963458 -0.00099303996    6.2263961    7.4200668    13.646463         8000 
    4600           23    0.6655622 -0.00023859642    4.4869876    8.9850897    13.472077         8000 
    4700         23.5   0.84621735 0.00045139497     5.306249    11.423934    16.730183         8000 
    4800           24   0.48998261 -0.00042675503    8.1372605    6.6147652    14.752026         8000 
    4900         24.5   0.43691557 0.0019162917    7.4525716    5.8983602    13.350932         8000 
    5000           25   0.50827022 -0.0007014503    9.2910906     6.861648    16.152739         8000 
    5100         25.5   0.41516332 -0.00061202252    10.091941    5.6047049    15.696646         8000 
    5200           26    0.5725353 -0.0013628673    5.1455739    7.7292266      12.8748         8000 
    5300         26.5   0.60651143 0.0023973217    6.3665743    8.1879042    14.554479         8000 
    5400           27    0.4563603 0.0014008224    5.7734419     6.160864    11.934306         8000 
    5500         27.5   0.53212945 -0.0038447776     5.497296    7.1837475    12.681043         8000 
    5600           28   0.53619467 0.0010042093    5.4264742    7.2386281    12.665102         8000 
    5700         28.5   0.61328394 0.0012663416    4.2831235    8.2793332    12.562457         8000 
    5800           29    0.5211314 -0.00042193126    4.2812368    7.0352739    11.316511         8000 
    5900         29.5   0.38343179 -0.00086905371    8.8511031    5.1763291    14.027432         8000 
    6000           30   0.77834015  0.003547297     10.93104    10.507592    21.438632         8000 
    6100         30.5   0.61504227 -0.0019145461    10.326045    8.3030707    18.629116         8000 
    6200           31   0.48448136 -0.00051395492    7.9229938    6.5404983    14.463492         8000 
    6300         31.5   0.50690433 -0.0033173737    7.4098452    6.8432085    14.253054         8000 
    6400           32   0.38003318 0.0028210942    7.2429018    5.1304479     12.37335         8000 
    6500         32.5   0.50630366 0.00062917648     4.152836    6.8350995    10.987935         8000 
    6600           33   0.41795542 -0.0015624327    7.0534066    5.6423981    12.695805         8000 
    6700         33.5   0.44604353 0.0018674433    9.0871732    6.0215876    15.108761         8000 
    6800           34    0.5618324 -0.0012910738    5.6837694    7.5847374    13.268507         8000 
    6900         34.5   0.64879641 0.0021789717    4.8533394    8.7587516    13.612091         8000 
    7000           35   0.47105662 -0.0014035325    6.8265453    6.3592644     13.18581         8000 
    7100         35.5   0.61698348 0.00092515861    6.3727943    8.3292769    14.702071         8000 
    7200           36   0.53943615 0.00040600867    8.1612759     7.282388    15.443664         8000 
    7300         36.5   0.57676669 -0.0013712887    7.6212091    7.7863503    15.407559         8000 
    7400           37   0.48033381  0.005570833     4.874318    6.4845064    11.358824         8000 
    7500         37.5   0.56115056 -0.0034508329    3.8053191    7.5755326    11.380852         8000 
    7600           38   0.49375202  0.004652992    4.7824456    6.6656522    11.448098         8000 
    7700         38.5   0.58660301 -0.00033469326    2.0564947    7.9191406    9.9756352         8000 
    7800           39   0.39765996 -0.0020793405    4.0382996    5.3684094     9.406709         8000 
    7900         39.5   0.38575169 -0.0018596146    4.2738401    5.2076478    9.4814879         8000 
    8000           40   0.38523992 -0.00096436918    5.0770532    5.2007389    10.277792         8000 
    8100         40.5   0.59757367 -0.0021711074    4.7000752    8.0672446     12.76732         8000 
    8200           41   0.51815481 0.0028833176    6.5104002    6.9950899     13.50549         8000 
    8300         41.5   0.69719507 -0.0012520436    4.0827372    9.4121334    13.494871         8000 
    8400           42   0.49460331 0.0010598158    7.1932346    6.6771447    13.870379         8000 
    8500         42.5    0.6371812 0.0008061465    6.0433816    8.6019462    14.645328         8000 
    8600           43   0.41532799 0.0030189847    7.5095049    5.6069278    13.116433         8000 
    8700         43.5   0.46394169 0.0031265365    6.6659878    6.2632129    12.929201         8000 
    8800           44   0.57514422 -0.00068370457    5.5678363    7.7644469    13.332283         8000 
    8900         44.5   0.44929363 0.0023349544    6.0974317     6.065464    12.162896         8000 
    9000           45   0.65200084 -0.00066191034    5.8102441    8.8020113    14.612255         8000 
    9100         45.5   0.50245074 0.00069262503    8.4991245     6.783085     15.28221         8000 
    9200           46   0.54060502 -0.0024893822    7.6948329    7.2981677    14.993001         8000 
    9300         46.5   0.64091757 0.0051207257    10.263076    8.6523872    18.915463         8000 
    9400           47   0.67210348 -0.0031594997    7.2618306     9.073397    16.335228         8000 
    9500         47.5   0.46626372 0.0019044182     4.919218    6.2945602    11.213778         8000 
    9600           48   0.64733382 0.00081148436    4.1748059    8.7390066    12.913812         8000 
    9700         48.5   0.50086915 -0.0011798591    5.5901979    6.7617336    12.351931         8000 
    9800           49   0.78890434 0.0027023187    3.8850173    10.650209    14.535226         8000 
    9900         49.5     0.707058 0.00052946054    7.2780155     9.545283    16.823299         8000 
   10000           50   0.44720461 0.00099313781    4.4642489    6.0372622    10.501511         8000 
   10100         50.5   0.47101972 -0.0021897045    6.3584287    6.3587662    12.717195         8000 
   10200           51   0.68839287  0.001026195    4.5772057    9.2933037    13.870509         8000 
   10300         51.5   0.56950431 0.0014544287    4.9033674    7.6883081    12.591676         8000 
   10400           52   0.76206576 0.0026155106    4.9094425    10.287888     15.19733         8000 
   10500         52.5   0.46160385 -0.0047652911    9.4781502     6.231652    15.709802         8000 
   10600           53    0.5573693 0.0033973871    9.7453448    7.5244856     17.26983         8000 
   10700         53.5   0.39643275 -0.0022858218    10.902821    5.3518421    16.254663         8000 
   10800           54   0.55440793 0.0019339996    6.4578314    7.4845071    13.942338         8000 
   10900         54.5   0.63097757 -0.0038268551    6.9470128    8.5181971     15.46521         8000 
   11000           55   0.45785818 0.0040118577    7.4834519    6.1810855    13.664537         8000 
   11100         55.5    0.7063954 0.0028488048    3.9329391    9.5363379    13.469277         8000 
   11200           56   0.60280484 -0.0011856234    7.5872275    8.1378653    15.725093         8000 
   11300         56.5    0.8614902 0.0029301063     5.524848    11.630118    17.154966         8000 
   11400           57   0.72518283 -0.0053916666    5.7898569    9.7899682    15.579825         8000 
   11500         57.5   0.45942199 0.0032442977    6.3121121    6.2021968    12.514309         8000 
   11600           58   0.40045428 -0.0056210295    7.9923214    5.4061328    13.398454         8000 
   11700         58.5   0.40214762 0.0034388289    7.4498432    5.4289929    12.878836         8000 
   11800           59   0.45199215 -0.0055512458    5.1992853     6.101894    11.301179         8000 
   11900         59.5   0.54356704 0.0021206218    6.7095787    7.3381551    14.047734         8000 
   12000           60   0.49185919 -0.0020114587    3.9639524    6.6400991    10.604051         8000 
   12100         60.5   0.45611229  0.002268353    2.4319943    6.1575159    8.5895103         8000 
   12200           61   0.51219674  -0.00223664     3.365627    6.9146559    10.280283         8000 
   12300         61.5   0.44826258 -0.0018801007    3.1941291    6.0515448    9.2456739         8000 
   12400           62   0.40131716  0.005332793    6.1228383    5.4177816     11.54062         8000 
   12500         62.5   0.45100715 -0.0040430644    5.7752505    6.0885965    11.863847         8000 
   12600           63   0.44196344 0.0048030472    8.7700289    5.9665064    14.736535         8000 
   12700         63.5   0.58472035 -0.0045231718    5.7166861    7.8937247    13.610411         8000 
   12800           64   0.64893159 0.0022761584    8.2186381    8.7605765    16.979215         8000 
   12900         64.5   0.60313774 -0.0014236262    4.3018504    8.1423595     12.44421         8000 
   13000           65   0.66000109 0.0024064448    7.0315829    8.9100147    15.941598         8000 
   13100         65.5   0.92447286 0.00041911822    9.2712251    12.480384    21.751609         8000 
   13200           66   0.58416424 0.0014494812    5.6401447    7.8862172    13.526362         8000 
   13300         66.5   0.50715383 0.0011579865    4.4957402    6.8465766    11.342317         8000 
   13400           67   0.40197656 -0.0024388224     5.632329    5.4266836    11.059013         8000 
   13500         67.5   0.50929822 3.932195e-05    5.3169171     6.875526    12.192443         8000 
   13600           68   0.55065297 0.0015135018    4.8264158    7.4338151    12.260231         8000 
   13700         68.5   0.60782245 -1.2876913e-05    4.6773923    8.2056031    12.882995         8000 
   13800           69   0.65989439 -0.0037805203    6.7500236    8.9085743    15.658598         8000 
   13900         69.5   0.38442741 0.0028875386    4.8920379      5.18977    10.081808         8000 
   14000           70   0.47299089 -0.0021033656    4.4367239    6.3853771    10.822101         8000 
   14100         70.5   0.37071158 0.0035778971    5.8279576    5.0046063    10.832564         8000 
   14200           71   0.43862012 -0.0015931816    3.9727294    5.9213716     9.894101         8000 
   14300         71.5   0.53343721 0.0028516606      6.46901    7.2014023    13.670412         8000 
   14400           72   0.60686291 -0.00096611618    5.3657435    8.1926493    13.558393         8000 
   14500         72.5   0.37620977 0.0023066432    5.7070705    5.0788319    10.785902         8000 
   14600           73   0.57769707 -0.0028061722    5.6337829    7.7989105    13.432693         8000 
   14700         73.5   0.34776775 0.0030337109    6.0108989    4.6948646    10.705764         8000 
   14800           74   0.40427074 -0.00089836449    2.7890104     5.457655    8.2466654         8000 
   14900         74.5   0.49063526 -0.00040880718    3.2478882     6.623576    9.8714642         8000 
   15000           75   0.42267131 1.7351461e-05    3.0314895    5.7060626    8.7375522         8000 
   15100         75.5   0.40647802 -0.0034103286    4.0928376    5.4874533    9.5802909         8000 
   15200           76   0.68300702 0.0058813978    3.4472575    9.2205948    12.667852         8000 
   15300         76.5   0.45605616 -0.0038107554     6.687585    6.1567582    12.844343         8000 
   15400           77    0.6589152 0.0028467758    6.7331413    8.8953552    15.628496         8000 
   15500         77.5   0.51760887 -0.0020516959    4.8842308    6.9877197    11.871951         8000 
   15600           78    0.4347523 0.0028924002    6.2833338    5.8691561     12.15249         8000 
   15700         78.5   0.80151496 0.00073627566    5.3842929    10.820452    16.204745         8000 
   15800           79   0.80520049 -0.0032688578    7.7507893    10.870207    18.620996         8000 
   15900         79.5   0.54858229 0.0029305959    9.0344046     7.405861    16.440266         8000 
   16000           80   0.51589829 0.00027878801    7.5413976    6.9646269    14.506025         8000 
   16100         80.5   0.34516735 0.00087852066    6.0877836    4.6597592    10.747543         8000 
   16200           81   0.49929006 -0.00046438179    4.0394663    6.7404158    10.779882         8000 
   16300         81.5   0.41792213 0.0017482992    8.8766427    5.6419488    14.518592         8000 
   16400           82   0.34353656 -0.0038348398    8.9195608    4.6377436    13.557304         8000 
   16500         82.5   0.53865803 0.0043851168    5.2658636    7.2718834    12.537747         8000 
   16600           83   0.38525973 -0.0052298911    5.6098834    5.2010063     10.81089         8000 
   16700         83.5    0.4412614 0.0016902308    5.9105946    5.9570289    11.867624         8000 
   16800           84   0.72252012 -0.0009883715     4.828365    9.7540216    14.582387         8000 
   16900         84.5   0.73231704 -0.00064703808    5.8347676      9.88628    15.721048         8000 
   17000           85   0.85835137 -0.0011115049    5.1644598    11.587744    16.752203         8000 
   17100         85.5   0.64101351 -0.00083049589    2.0525015    8.6536824    10.706184         8000 
   17200           86   0.63374302 0.00070196403     2.565274    8.5555308    11.120805         8000 
   17300         86.5   0.61713923 -0.00067187369     2.947611    8.3313796    11.278991         8000 
   17400           87   0.60427361 0.0019463868    6.2952641    8.1576938    14.452958         8000 
   17500         87.5   0.66428875 0.00023482053    5.5758894    8.9678982    14.543788         8000 
   17600           88   0.46124934 0.0023356636    4.9672804    6.2268661    11.194146         8000 
   17700         88.5   0.43207056 -0.0021901895    5.5738978    5.8329526     11.40685         8000 
   17800           89   0.36006161 0.0022309236    4.0781243    4.8608317     8.938956         8000 
   17900         89.5   0.28954547 -0.00093759526    6.0718805    3.9088639    9.9807444         8000 
   18000           90   0.50367251 -0.00088783986    5.9136745    6.7995789    12.713253         8000 
   18100         90.5   0.39627294 0.0022458327    5.9081331    5.3496847    11.257818         8000 
   18200           91   0.35913139 -0.0012814948    5.7859741    4.8482738    10.634248         8000 
   18300         91.5   0.60024255 0.0029417029    6.0189229    8.1032744    14.122197         8000 
   18400           92   0.50934953 -0.00017079583    6.0790781    6.8762186    12.955297         8000 
   18500         92.5   0.44075687 -0.0015031867    4.3764786    5.9502178    10.326696         8000 
   18600           93   0.43246236 0.00089253271    3.9617479    5.8382418    9.7999898         8000 
   18700         93.5   0.57523227 -0.0016613995    3.8400324    7.7656356    11.605668         8000 
   18800           94   0.54237315 0.0023658048    4.3074245    7.3220376    11.629462         8000 
   18900         94.5   0.45732734 -5.273086e-06    6.2535049    6.1739191    12.427424         8000 
   19000           95   0.51028444 -0.00093967801     4.540473      6.88884    11.429313         8000 
   19100         95.5   0.61392225 0.00079336759     4.625665    8.2879504    12.913615         8000 
   19200           96   0.62577426 -0.00047565518    3.4636382    8.4479525    11.911591         8000 
   19300         96.5    0.4858748 0.00057582214    5.9615695    6.5593098    12.520879         8000 
   19400           97   0.40065961 -0.0028593825    6.4977655    5.4089048     11.90667         8000 
   19500         97.5   0.65685386    0.0032908    5.2378432    8.8675271     14.10537         8000 
   19600           98   0.49347148 -0.0042932273    6.1908923    6.6618649    12.852757         8000 
   19700         98.5   0.76203048  0.002885759     5.794065    10.287411    16.081476         8000 
   19800           99   0.78583749 -0.0059475904    4.8969665    10.608806    15.505773         8000 
   19900         99.5   0.74139077 0.0098639092    9.5078208    10.008775    19.516596         8000 
   20000          100    0.4470525 -0.0062505142    6.3152315    6.0352087     12.35044         8000 
Loop time of 0.911894 on 1 procs for 20000 steps with 10 atoms

Performance: 9474787.061 tau/day, 21932.377 timesteps/s
12.0% CPU use with 1 MPI tasks x 1 OpenMP threads

MPI task timing breakdown:
Section |  min time  |  avg time  |  max time  |%varavg| %total
---------------------------------------------------------------
Pair    | 0.005028   | 0.005028   | 0.005028   |   0.0 |  0.55
Bond    | 0.016981   | 0.016981   | 0.016981   |   0.0 |  1.86
Neigh   | 0.010915   | 0.010915   | 0.010915   |   0.0 |  1.20
Comm    | 0.0035028  | 0.0035028  | 0.0035028  |   0.0 |  0.38
Output  | 0.81789    | 0.81789    | 0.81789    |   0.0 | 89.69
Modify  | 0.034821   | 0.034821   | 0.034821   |   0.0 |  3.82
Other   |            | 0.02275    |            |       |  2.50

Nlocal:    10 ave 10 max 10 min
Histogram: 1 0 0 0 0 0 0 0 0 0
Nghost:    0 ave 0 max 0 min
Histogram: 1 0 0 0 0 0 0 0 0 0
Neighs:    0 ave 0 max 0 min
Histogram: 1 0 0 0 0 0 0 0 0 0

Total # of neighbors = 0
Ave neighs/atom = 0
Ave special neighs/atom = 3.6
Neighbor list builds = 332
Dangerous builds = 0

# SHELL
shell copy output.dump        output_T_${T}_N_${N}_box_${box}_run_${run_tau}_tau_num_${num}.dump
shell copy output.dump        output_T_0.5_N_${N}_box_${box}_run_${run_tau}_tau_num_${num}.dump
shell copy output.dump        output_T_0.5_N_100_box_${box}_run_${run_tau}_tau_num_${num}.dump
shell copy output.dump        output_T_0.5_N_100_box_50_run_${run_tau}_tau_num_${num}.dump
shell copy output.dump        output_T_0.5_N_100_box_50_run_100_tau_num_${num}.dump
shell copy output.dump        output_T_0.5_N_100_box_50_run_100_tau_num_1.dump
shell echo> T_${T}.done
shell echo> T_0.5.done
#shell commands modified for use in windows

#This section  of codes allows looping over the list of T values
#clear
#next T
#jump in.run

Total wall time: 0:00:01
