LAMMPS (3 Mar 2020)
OMP_NUM_THREADS environment is not set. Defaulting to 1 thread. (../comm.cpp:94)
  using 1 OpenMP thread(s) per MPI task
# VARIABLES
variable T         equal  0.50 #0.10 0.36 0.70
variable num       equal  1
variable N         equal  100 #200 # 250 300 350
variable box       equal  50
variable t_step    equal  0.005
variable mix_steps equal  20000
variable mix_tau   equal  ${t_step}*${mix_steps}
variable mix_tau   equal  0.005*${mix_steps}
variable mix_tau   equal  0.005*20000
variable run_steps equal  20000
variable run_tau   equal  ${t_step}*${run_steps}
variable run_tau   equal  0.005*${run_steps}
variable run_tau   equal  0.005*20000

# PARAMETERS
units lj
atom_style molecular
neighbor 0.4 bin
neigh_modify every 1 delay 1 check yes
comm_modify vel yes
comm_modify cutoff 1.9
#KG added to remove "Communication cutoff 1.52 is shorter than a bond length
#based estimate of 1.87. This may lead to errors" warning.

# READ
read_data rigid_rods.file
  orthogonal box = (-10 -10 -10) to (10 10 10)
  1 by 1 by 1 MPI processor grid
  reading atoms ...
  10 atoms
  scanning bonds ...
  1 = max bonds/atom
  scanning angles ...
  1 = max angles/atom
  reading bonds ...
  9 bonds
  reading angles ...
  8 angles
  2 = max # of 1-2 neighbors
  2 = max # of 1-3 neighbors
  4 = max # of 1-4 neighbors
  6 = max # of special neighbors
  special bonds CPU = 0.011328 secs
  read_data CPU = 0.031569 secs

#  BONDS
bond_style harmonic
special_bonds lj 0 1 1
  2 = max # of 1-2 neighbors
  2 = max # of 1-3 neighbors
  4 = max # of 1-4 neighbors
  6 = max # of special neighbors
  special bonds CPU = 0.0126948 secs
bond_coeff * 500.0 0.98  # the wildcard (*) means to have the same for all bond types.
bond_coeff 5 50.0 0.98

# ANGLES
angle_style harmonic
angle_coeff * 500.0  180
angle_coeff 4 0.1  180
angle_coeff 5 0.1  180

# PAIR lj/cut --with interactions, to steady state
pair_style lj/cut 1.0
pair_modify shift yes
pair_coeff * * 1  1.0  1.12

# THERMAL
timestep ${t_step}
timestep 0.005
thermo   100
thermo_style custom step time temp press pe ke etotal vol
thermo_modify norm no
reset_timestep 0

# FIX
fix 2 all nve
fix 3 all langevin ${T} ${T} 1 123456
fix 3 all langevin 0.5 ${T} 1 123456
fix 3 all langevin 0.5 0.5 1 123456
fix recen1 all recenter INIT INIT INIT


# DUMP OUTPUT
dump  1  all custom 1000 output.dump id mol type x y z vx vy vz

# FIX for RDF
#comm_modify cutoff 25.0
#compute   3 all rdf 500 5 6 cutoff 24.0
#fix       3 all ave/time 1 ${run_steps} ${run_steps} c_3[*] file rdf_T_${T}_N_${N}_box_${box}_tau_${run_tau}.rdf mode vector


# RUN
run ${run_steps}
run 20000
Neighbor list info ...
  update every 1 steps, delay 1 steps, check yes
  max neighbors/atom: 2000, page size: 100000
  master list distance cutoff = 1.52
  ghost atom cutoff = 1.9
  binsize = 0.76, bins = 27 27 27
  1 neighbor lists, perpetual/occasional/extra = 1 0 0
  (1) pair lj/cut, perpetual
      attributes: half, newton on
      pair build: half/bin/newton
      stencil: half/bin/3d/newton
      bin: standard
Per MPI rank memory allocation (min/avg/max) = 7.961 | 7.961 | 7.961 Mbytes
Step Time Temp Press PotEng KinEng TotEng Volume 
       0            0            0 6.6187796e-17 1.1130334e-27            0 1.1130334e-27         8000 
     100          0.5   0.32084913 -1.5751896e-05    1.8442381    4.3314633    6.1757013         8000 
     200            1   0.43840915 0.0033923531    5.2185629    5.9185236    11.137086         8000 
     300          1.5   0.59325601 -0.0033990035    7.4591415    8.0089561    15.468098         8000 
     400            2    0.6225259 0.0021982979    8.2857619    8.4040996    16.689862         8000 
     500          2.5   0.60980874 0.0025552707     4.692432     8.232418     12.92485         8000 
     600            3   0.51921012 0.00059606981    8.1896956    7.0093366    15.199032         8000 
     700          3.5   0.76513118 -2.5059285e-05     7.754549    10.329271     18.08382         8000 
     800            4    1.0613274 -0.0077842779    7.9756425     14.32792    22.303563         8000 
     900          4.5   0.81954521 0.0010150245    4.2691393     11.06386       15.333         8000 
    1000            5   0.55116552 0.00062325133    6.6078959    7.4407345     14.04863         8000 
    1100          5.5   0.51026554 -0.0022002668    4.7074324    6.8885848    11.596017         8000 
    1200            6   0.62891917 0.0016375604    5.4975657    8.4904088    13.987975         8000 
    1300          6.5   0.51037099 -0.0030870113    7.0569599    6.8900083    13.946968         8000 
    1400            7   0.53480141 0.0025415398    6.4205632     7.219819    13.640382         8000 
    1500          7.5   0.48463567 0.0028195001    6.0825712    6.5425816    12.625153         8000 
    1600            8   0.70071313 0.0023228258    5.5179689    9.4596273    14.977596         8000 
    1700          8.5   0.62032579 -0.00017340968     6.692755    8.3743982    15.067153         8000 
    1800            9   0.52926072 -0.00043734521    5.1487558    7.1450198    12.293776         8000 
    1900          9.5   0.65403612 0.00047309531    5.5988037    8.8294877    14.428291         8000 
    2000           10   0.64003854 -0.0017539889    5.1815938    8.6405203    13.822114         8000 
    2100         10.5   0.68161157 0.0022134017    5.6621169    9.2017563    14.863873         8000 
    2200           11   0.60469002 -0.0043350352     6.146236    8.1633152    14.309551         8000 
    2300         11.5   0.47994218 0.0032535408     9.311172    6.4792194    15.790391         8000 
    2400           12   0.59806814 -0.0017419172    5.6750512    8.0739199    13.748971         8000 
    2500         12.5   0.49267542 0.00032325212    4.3237748    6.6511182    10.974893         8000 
    2600           13   0.52003985 0.0024666436     7.272223     7.020538    14.292761         8000 
    2700         13.5   0.38912813 -0.0029301396    8.9243817    5.2532298    14.177611         8000 
    2800           14   0.55454363 -0.0011812501     8.835423     7.486339    16.321762         8000 
    2900         14.5   0.50177909 0.0017116464    4.8464035    6.7740177    11.620421         8000 
    3000           15   0.44801517 0.0014215353    4.0397539    6.0482048    10.087959         8000 
    3100         15.5   0.50419617 -0.00015219963    6.1168704    6.8066483    12.923519         8000 
    3200           16   0.80310037 -0.0041405856    6.1706526    10.841855    17.012508         8000 
    3300         16.5   0.47067498 0.00058431418    7.9777576    6.3541122     14.33187         8000 
    3400           17   0.25518539 -0.00091329301    7.1328236    3.4450028    10.577826         8000 
    3500         17.5   0.32765851 -0.00089026675     6.688128    4.4233899    11.111518         8000 
    3600           18   0.60951023 -0.0014436333    8.4778338    8.2283881    16.706222         8000 
    3700         18.5   0.73956015 0.0012279395     4.897769     9.984062    14.881831         8000 
    3800           19   0.41721154 0.0014060324    4.6632092    5.6323557    10.295565         8000 
    3900         19.5   0.38297034 -0.0037253794    2.8265818    5.1700996    7.9966814         8000 
    4000           20   0.46031623 0.0034205044    3.4696451     6.214269    9.6839141         8000 
    4100         20.5   0.32811798 -0.0012891085    5.9393192    4.4295927    10.368912         8000 
    4200           21   0.36325405 0.0011048764     3.666033    4.9039297    8.5699626         8000 
    4300         21.5   0.42793318 0.0015001817    3.6144042    5.7770979    9.3915021         8000 
    4400           22   0.45899739 -0.0014283459    5.4841649    6.1964647     11.68063         8000 
    4500         22.5   0.53710967 -0.0013458738    3.0760633    7.2509806    10.327044         8000 
    4600           23    0.3839657 0.0011337583    2.8918721     5.183537    8.0754091         8000 
    4700         23.5   0.38028703 -0.0011251167    2.8542861    5.1338749    7.9881609         8000 
    4800           24   0.42873652 -0.0022008684     3.895318     5.787943    9.6832611         8000 
    4900         24.5   0.29122697 0.0039600307    4.9690209    3.9315641     8.900585         8000 
    5000           25    0.4972357 0.00063686278    5.5463588    6.7126819    12.259041         8000 
    5100         25.5   0.44593278 -0.0047461755    9.4400002    6.0200925    15.460093         8000 
    5200           26   0.45757193 0.00061456345    7.5601146     6.177221    13.737336         8000 
    5300         26.5   0.51470848  0.002299484    5.4718017    6.9485644    12.420366         8000 
    5400           27   0.69030437 0.0029362356    4.6517953    9.3191089    13.970904         8000 
    5500         27.5   0.44543997 -0.0051331845     5.743052    6.0134396    11.756492         8000 
    5600           28   0.55713085 0.0012546114     7.263349    7.5212665    14.784615         8000 
    5700         28.5   0.49063343 -0.00090804245    7.5637963    6.6235514    14.187348         8000 
    5800           29    0.5348678 0.0026072932    4.5311847    7.2207153      11.7519         8000 
    5900         29.5   0.44137428 -0.0019332052    7.6767159    5.9585528    13.635269         8000 
    6000           30   0.74295114 0.0031368206    6.9337378     10.02984    16.963578         8000 
    6100         30.5   0.76241708 -0.00044635151    7.1156018    10.292631    17.408232         8000 
    6200           31   0.76119752   0.00342148    4.8025069    10.276167    15.078673         8000 
    6300         31.5   0.42460714 -0.0028589506    9.2537342    5.7321963    14.985931         8000 
    6400           32   0.47382255 -0.0019262746    6.2105137    6.3966044    12.607118         8000 
    6500         32.5   0.53978928 0.0020791203    5.5207121    7.2871553    12.807867         8000 
    6600           33    0.2905383 -0.00098493963    4.9631526    3.9222671    8.8854197         8000 
    6700         33.5   0.60199274 -0.00013324893    4.9412308     8.126902    13.068133         8000 
    6800           34   0.53490699 0.0010281985    5.0899253    7.2212444     12.31117         8000 
    6900         34.5   0.65576603 0.00072285481    6.4736049    8.8528414    15.326446         8000 
    7000           35   0.59569903 -0.000920843    3.5027979     8.041937    11.544735         8000 
    7100         35.5   0.31681557 0.0037973739    5.4522602    4.2770102    9.7292705         8000 
    7200           36   0.59184364 -0.0016039015    4.9781301    7.9898892    12.968019         8000 
    7300         36.5   0.50553749 3.7271287e-05    5.3522273    6.8247561    12.176983         8000 
    7400           37   0.31552544  0.004156268    7.6343473    4.2595935    11.893941         8000 
    7500         37.5   0.41048968 -0.0023179589    6.7648687    5.5416107    12.306479         8000 
    7600           38   0.66117704 7.0423669e-05    3.3764946    8.9258901    12.302385         8000 
    7700         38.5   0.44535377 0.0019965722    4.6717173    6.0122758    10.683993         8000 
    7800           39   0.39189283 -0.0024975587    5.1086916    5.2905532    10.399245         8000 
    7900         39.5   0.45516402 -0.00080368009     3.938248    6.1447143    10.082962         8000 
    8000           40   0.39108708 -0.0023063986    5.3545784    5.2796756    10.634254         8000 
    8100         40.5   0.39725199 0.0007598369    5.0572774    5.3629019    10.420179         8000 
    8200           41   0.42044844 -0.0018688687    5.7974842    5.6760539    11.473538         8000 
    8300         41.5    0.7544872 -0.00022276544     4.369297    10.185577    14.554874         8000 
    8400           42   0.45295715 0.0024661466    6.1851885    6.1149216     12.30011         8000 
    8500         42.5   0.71645833 -0.0010967284    1.9958203    9.6721875    11.668008         8000 
    8600           43    0.4651914 0.0012376218    6.6050153    6.2800839    12.885099         8000 
    8700         43.5   0.67111601 0.0023211472    5.5590448    9.0600661    14.619111         8000 
    8800           44   0.43449413 -0.0022285635    6.9190888    5.8656708     12.78476         8000 
    8900         44.5   0.55379098 0.0041267727    5.3503278    7.4761783    12.826506         8000 
    9000           45   0.44901263 0.0038333147    4.4096459    6.0616706    10.471316         8000 
    9100         45.5   0.44220034 -8.8332174e-05    4.2809359    5.9697046     10.25064         8000 
    9200           46   0.27092176 -0.0016999817    3.6680868    3.6574437    7.3255305         8000 
    9300         46.5   0.37668733   0.00516222    9.4715645     5.085279    14.556843         8000 
    9400           47   0.54403204 -0.0033350885    5.0431493    7.3444325    12.387582         8000 
    9500         47.5   0.48113367 0.0023174395    6.9568708    6.4953045    13.452175         8000 
    9600           48   0.54030922  0.003223553    5.7395498    7.2941745    13.033724         8000 
    9700         48.5   0.31827023 -0.0042867234    9.6434304    4.2966481    13.940078         8000 
    9800           49   0.60216182 0.0021388691    5.3587359    8.1291846     13.48792         8000 
    9900         49.5   0.56261457 0.00029517532    9.3527856    7.5952967    16.948082         8000 
   10000           50   0.73095529 0.00093694621    5.6753712    9.8678964    15.543268         8000 
   10100         50.5   0.48886233 -0.0018605726    9.6057427    6.5996415    16.205384         8000 
   10200           51   0.65081991 0.0021298172    5.7200536    8.7860688    14.506122         8000 
   10300         51.5   0.65390964 -0.00023652471    6.9378851    8.8277802    15.765665         8000 
   10400           52   0.62295344 0.0020659428    5.1284511    8.4098714    13.538322         8000 
   10500         52.5   0.37283063 0.0013112795    6.4937785    5.0332135    11.526992         8000 
   10600           53   0.65268261 -0.0046837242    5.9875991    8.8112152    14.798814         8000 
   10700         53.5   0.85579377 0.0063891399    6.5057557    11.553216    18.058972         8000 
   10800           54   0.44160222 -0.0051153448    9.7366968    5.9616299    15.698327         8000 
   10900         54.5    0.3741859 0.0011111106    3.0135764    5.0515097    8.0650861         8000 
   11000           55   0.37278112 -0.0015462251    3.2955605    5.0325451    8.3281056         8000 
   11100         55.5   0.55110506 0.0045118932    3.4198995    7.4399183    10.859818         8000 
   11200           56   0.56982041 -0.0039145598    4.9754237    7.6925755    12.667999         8000 
   11300         56.5   0.50471946 0.00014527434    6.8564665    6.8137127    13.670179         8000 
   11400           57   0.68299608 -0.0026001897    6.9647614     9.220447    16.185208         8000 
   11500         57.5   0.43486203 -0.0027881237    4.7069639    5.8706375    10.577601         8000 
   11600           58   0.51161288 0.00021942353    4.0551188    6.9067739    10.961893         8000 
   11700         58.5   0.55629756 0.0015450945    6.6361475     7.510017    14.146165         8000 
   11800           59   0.55882297 -0.0013222267    5.5925566    7.5441101    13.136667         8000 
   11900         59.5   0.49457221 -0.0058807206    7.6103919    6.6767248    14.287117         8000 
   12000           60    0.6369324 0.0026418067    4.0255844    8.5985874    12.624172         8000 
   12100         60.5   0.55329267 0.00082869412    5.7946342    7.4694511    13.264085         8000 
   12200           61   0.61271187 -0.0039185997    2.5948641    8.2716103    10.866474         8000 
   12300         61.5   0.43280464 -0.0013419589     6.729957    5.8428627     12.57282         8000 
   12400           62   0.57037929 0.0037528129    4.0438252    7.7001204    11.743946         8000 
   12500         62.5   0.39501113 -0.0026548919    6.0102891    5.3326503    11.342939         8000 
   12600           63   0.32258489 0.0011353404    4.9711531     4.354896     9.326049         8000 
   12700         63.5   0.45258132  0.000970585     2.387563    6.1098478    8.4974108         8000 
   12800           64   0.57485121 -0.00070329019     5.095181    7.7604914    12.855672         8000 
   12900         64.5   0.59977967 -0.0028860448    6.0095377    8.0970256    14.106563         8000 
   13000           65   0.68462019 9.2765944e-05      6.32669    9.2423726    15.569063         8000 
   13100         65.5   0.82563343 0.0046353802    5.0508932    11.146051    16.196945         8000 
   13200           66   0.47255964 0.00067814291     4.175536    6.3795552    10.555091         8000 
   13300         66.5   0.69110276 0.00051571677    5.6597107    9.3298873    14.989598         8000 
   13400           67   0.45530364 -0.0010067389    6.7640151    6.1465991    12.910614         8000 
   13500         67.5   0.37119849 0.00088954698    5.1013186    5.0111797    10.112498         8000 
   13600           68   0.49605182  0.004111828     4.401523    6.6966995    11.098222         8000 
   13700         68.5    0.4310023 -0.001033626    4.0802093     5.818531    9.8987403         8000 
   13800           69   0.29331862 -0.0035074278    4.3637274    3.9598014    8.3235288         8000 
   13900         69.5   0.29463916 0.0012488299    2.8977743    3.9776287     6.875403         8000 
   14000           70    0.3169416 -0.0009543236    3.8278216    4.2787116    8.1065332         8000 
   14100         70.5   0.50352486 0.0028260929    4.8697639    6.7975856     11.66735         8000 
   14200           71   0.54305823 -0.00033330946    3.5047561    7.3312861    10.836042         8000 
   14300         71.5   0.55853709 2.9635278e-05    5.6943934    7.5402507    13.234644         8000 
   14400           72   0.70061757 0.0016821626    6.6775418    9.4583372    16.135879         8000 
   14500         72.5   0.55950182 -0.00056343164    10.135344    7.5532746    17.688618         8000 
   14600           73   0.70891513 -0.0025008558    6.8530527    9.5703543    16.423407         8000 
   14700         73.5   0.49932934 0.00098122088    4.6363099    6.7409461    11.377256         8000 
   14800           74   0.45949832 0.0019806487    4.5928396    6.2032274    10.796067         8000 
   14900         74.5   0.36221132 0.00027079475    4.8847037    4.8898528    9.7745565         8000 
   15000           75   0.39267021 0.00080704902     4.736633    5.3010479    10.037681         8000 
   15100         75.5   0.60035724 -0.00093686292    3.0001945    8.1048228    11.105017         8000 
   15200           76   0.38975131 0.0041789955    6.8491105    5.2616426    12.110753         8000 
   15300         76.5   0.54440863 -0.00080716517    5.2505841    7.3495165    12.600101         8000 
   15400           77   0.54895791 0.00067294429    5.8793802    7.4109318    13.290312         8000 
   15500         77.5   0.48014208 0.00032788592    3.9027707    6.4819181    10.384689         8000 
   15600           78   0.57948868 0.0015620669    2.9010874    7.8230972    10.724185         8000 
   15700         78.5   0.54149539 0.0015354882     4.387652    7.3101878     11.69784         8000 
   15800           79   0.57656186 -0.0059250763    5.2683888     7.783585    13.051974         8000 
   15900         79.5   0.53060286 0.0065616154    5.3025209    7.1631386     12.46566         8000 
   16000           80    0.5200994 -0.0044088391    5.4677966     7.021342    12.489139         8000 
   16100         80.5   0.35860319 0.0013423473    7.3348609     4.841143    12.176004         8000 
   16200           81   0.64991702 -0.00016108441    4.5844341    8.7738798    13.358314         8000 
   16300         81.5   0.40583342 -0.00070889907    5.3086275    5.4787511    10.787379         8000 
   16400           82   0.39805155 -0.0012996035     5.972872    5.3736959    11.346568         8000 
   16500         82.5   0.55245605 0.00035210367    5.4855298    7.4581567    12.943686         8000 
   16600           83   0.62144818 0.00081388428    4.4648027    8.3895504    12.854353         8000 
   16700         83.5   0.82752211 -0.00040751793    3.5193516    11.171549      14.6909         8000 
   16800           84    1.0748723 0.0024339676    3.9057358    14.510775    18.416511         8000 
   16900         84.5   0.53151878 -0.0020345345    6.5634479    7.1755035    13.738951         8000 
   17000           85   0.80140909 0.0003026655    5.1133594    10.819023    15.932382         8000 
   17100         85.5   0.63467202 0.0014431062    5.2788663    8.5680723    13.846939         8000 
   17200           86   0.67640369 -0.0018364603    4.7586688    9.1314498    13.890119         8000 
   17300         86.5   0.50358846 0.0059960749    5.6613619    6.7984443    12.459806         8000 
   17400           87   0.66105052 -0.0028847939    6.5847231     8.924182    15.508905         8000 
   17500         87.5   0.37492409 0.0042633953    7.9861397    5.0614752    13.047615         8000 
   17600           88   0.42597291 -0.0037864873    5.4741471    5.7506343    11.224781         8000 
   17700         88.5   0.55667588 0.0010482877    4.1347902    7.5151244    11.649915         8000 
   17800           89   0.45553394 -0.00082462595     3.221761    6.1497083    9.3714693         8000 
   17900         89.5   0.27942227 0.0027752974    5.7627499    3.7722006    9.5349506         8000 
   18000           90   0.57783971 -0.00075512079    5.6034512     7.800836    13.404287         8000 
   18100         90.5   0.45592224 0.0033821599    6.7752497    6.1549502      12.9302         8000 
   18200           91    0.4886921 -0.0013637074    5.4752421    6.5973434    12.072586         8000 
   18300         91.5   0.73226224 -1.1571672e-05    4.1340781    9.8855403    14.019618         8000 
   18400           92    0.8282111 -0.0023023895    4.7726377     11.18085    15.953487         8000 
   18500         92.5   0.52531284 -2.7538608e-05      8.77597    7.0917233    15.867693         8000 
   18600           93   0.48216366 0.00031751185    6.1979834    6.5092094    12.707193         8000 
   18700         93.5   0.69838292 -0.0028304173    7.3152483    9.4281694    16.743418         8000 
   18800           94   0.63153471 0.00083759991    8.9224411    8.5257186     17.44816         8000 
   18900         94.5   0.87734073 -6.8986066e-06    4.5728022      11.8441    16.416902         8000 
   19000           95   0.60441363 0.0028209748    4.9534867     8.159584    13.113071         8000 
   19100         95.5   0.56446515 0.0016990902    5.9910213    7.6202796    13.611301         8000 
   19200           96   0.45064955 0.0028660751    7.0911125    6.0837689    13.174881         8000 
   19300         96.5   0.74123009 -0.0055634418    5.3701239    10.006606     15.37673         8000 
   19400           97   0.45850713 0.0037467001    9.5805061    6.1898462    15.770352         8000 
   19500         97.5   0.39569659 -0.0049494516    10.760146     5.341904     16.10205         8000 
   19600           98   0.45872424 -0.00011540717    5.4800253    6.1927773    11.672803         8000 
   19700         98.5   0.85584582 -0.0023586534    6.9903254    11.553919    18.544244         8000 
   19800           99   0.74444104 -0.0026823687    5.7108643    10.049954    15.760818         8000 
   19900         99.5    0.9443566 0.0036403787    8.9044882    12.748814    21.653302         8000 
   20000          100   0.51153454 -0.0021106471    5.7613943    6.9057163    12.667111         8000 
Loop time of 0.901026 on 1 procs for 20000 steps with 10 atoms

Performance: 9589068.350 tau/day, 22196.917 timesteps/s
17.3% CPU use with 1 MPI tasks x 1 OpenMP threads

MPI task timing breakdown:
Section |  min time  |  avg time  |  max time  |%varavg| %total
---------------------------------------------------------------
Pair    | 0.0049582  | 0.0049582  | 0.0049582  |   0.0 |  0.55
Bond    | 0.023974   | 0.023974   | 0.023974   |   0.0 |  2.66
Neigh   | 0.028074   | 0.028074   | 0.028074   |   0.0 |  3.12
Comm    | 0.0080369  | 0.0080369  | 0.0080369  |   0.0 |  0.89
Output  | 0.78534    | 0.78534    | 0.78534    |   0.0 | 87.16
Modify  | 0.03049    | 0.03049    | 0.03049    |   0.0 |  3.38
Other   |            | 0.02015    |            |       |  2.24

Nlocal:    10 ave 10 max 10 min
Histogram: 1 0 0 0 0 0 0 0 0 0
Nghost:    0 ave 0 max 0 min
Histogram: 1 0 0 0 0 0 0 0 0 0
Neighs:    2 ave 2 max 2 min
Histogram: 1 0 0 0 0 0 0 0 0 0

Total # of neighbors = 2
Ave neighs/atom = 0.2
Ave special neighs/atom = 4.8
Neighbor list builds = 444
Dangerous builds = 0

# SHELL
shell copy output.dump        output_T_${T}_N_${N}_box_${box}_run_${run_tau}_tau_num_${num}.dump
shell copy output.dump        output_T_0.5_N_${N}_box_${box}_run_${run_tau}_tau_num_${num}.dump
shell copy output.dump        output_T_0.5_N_100_box_${box}_run_${run_tau}_tau_num_${num}.dump
shell copy output.dump        output_T_0.5_N_100_box_50_run_${run_tau}_tau_num_${num}.dump
shell copy output.dump        output_T_0.5_N_100_box_50_run_100_tau_num_${num}.dump
shell copy output.dump        output_T_0.5_N_100_box_50_run_100_tau_num_1.dump
shell echo> T_${T}.done
shell echo> T_0.5.done
#shell commands modified for use in windows

#clear
#next T
#jump in.run

Total wall time: 0:00:01
