LAMMPS (3 Mar 2020)
OMP_NUM_THREADS environment is not set. Defaulting to 1 thread. (../comm.cpp:94)
  using 1 OpenMP thread(s) per MPI task
# VARIABLES
variable T         equal  0.50 #0.10 0.36 0.70  #Can loop over this variable
variable box       equal  50 # cubic box of volume 10**3
variable t_step    equal  0.005
variable run_steps equal  20000 # steps to run simulation in order to reach steady state
variable run_tau   equal  ${t_step}*${run_steps} # this is the time in LJ units
variable run_tau   equal  0.005*${run_steps} 
variable run_tau   equal  0.005*20000 
# N is read into nunchucks.py file in args.parser

# PARAMETERS
units lj
atom_style molecular
neighbor 0.4 bin
neigh_modify every 1 delay 1 check yes
comm_modify vel yes
comm_modify cutoff 1.9
#KG added to remove "Communication cutoff 1.52 is shorter than a bond length
#based estimate of 1.87. This may lead to errors" warning.

# READ
read_data rigid_rods.file
  orthogonal box = (-10 -10 -10) to (10 10 10)
  1 by 1 by 1 MPI processor grid
WARNING: Atom style in data file differs from currently defined atom style (../read_data.cpp:514)
  reading atoms ...
  10 atoms
  scanning bonds ...
  1 = max bonds/atom
  scanning angles ...
  1 = max angles/atom
  reading bonds ...
  9 bonds
  reading angles ...
  8 angles
  2 = max # of 1-2 neighbors
  2 = max # of 1-3 neighbors
  4 = max # of 1-4 neighbors
  6 = max # of special neighbors
  special bonds CPU = 0.012521 secs
  read_data CPU = 0.034992 secs

#  BONDS
bond_style harmonic
special_bonds lj 0 1 1
  2 = max # of 1-2 neighbors
  2 = max # of 1-3 neighbors
  4 = max # of 1-4 neighbors
  6 = max # of special neighbors
  special bonds CPU = 0.0107498 secs
bond_coeff * 500.0 0.98  # the wildcard (*) means to have the same for all bond types.

# ANGLES
angle_style harmonic
angle_coeff * 500.0  180

# PAIR lj/cut --with interactions, to steady state
pair_style lj/cut 1.0
pair_modify shift yes
pair_coeff * * 1  1.0  1.12

# THERMAL
timestep ${t_step}
timestep 0.005
thermo   100
thermo_style custom step time temp press pe ke etotal vol
thermo_modify norm no
reset_timestep 0

# FIX
fix 2 all nve
fix 3 all langevin ${T} ${T} 1 123456
fix 3 all langevin 0.5 ${T} 1 123456
fix 3 all langevin 0.5 0.5 1 123456
fix recen1 all recenter INIT INIT INIT


# DUMP OUTPUT
dump  1  all custom 1000 output.dump id mol type x y z vx vy vz


# RUN
run ${run_steps}
run 20000
Neighbor list info ...
  update every 1 steps, delay 1 steps, check yes
  max neighbors/atom: 2000, page size: 100000
  master list distance cutoff = 1.52
  ghost atom cutoff = 1.9
  binsize = 0.76, bins = 27 27 27
  1 neighbor lists, perpetual/occasional/extra = 1 0 0
  (1) pair lj/cut, perpetual
      attributes: half, newton on
      pair build: half/bin/newton
      stencil: half/bin/3d/newton
      bin: standard
Per MPI rank memory allocation (min/avg/max) = 7.961 | 7.961 | 7.961 Mbytes
Step Time Temp Press PotEng KinEng TotEng Volume 
       0            0            0 4.9867518e-17 1.2017803e-27            0 1.2017803e-27         8000 
     100          0.5   0.25946202 0.0016754234    3.0506627    3.5027373       6.5534         8000 
     200            1   0.36162683 0.0027826756    6.1650575    4.8819622     11.04702         8000 
     300          1.5   0.44097272 -0.0030481809     5.056769    5.9531317    11.009901         8000 
     400            2   0.56117429 -0.0033030738    9.5435397    7.5758529    17.119393         8000 
     500          2.5   0.46093989 -0.0028817038    6.8165994    6.2226886    13.039288         8000 
     600            3   0.52527942 0.0038122017    5.4137384    7.0912721    12.505011         8000 
     700          3.5   0.88692065 0.0038900751     7.065358    11.973429    19.038787         8000 
     800            4   0.48732815 -0.0051933879    6.0940781      6.57893    12.673008         8000 
     900          4.5   0.37400656 -0.0057046457    8.5378398    5.0490885    13.586928         8000 
    1000            5     0.431845 -0.00057616454    6.7646243    5.8299075    12.594532         8000 
    1100          5.5   0.48654232 0.0057653329    6.6705964    6.5683214    13.238918         8000 
    1200            6   0.56776623 0.0060623842    10.193745    7.6648441    17.858589         8000 
    1300          6.5    0.4830264 -0.0011802336    8.5420863    6.5208564    15.062943         8000 
    1400            7   0.83195691 -0.0033591591    5.6422173    11.231418    16.873636         8000 
    1500          7.5   0.75336468 -0.0012605901    5.9916736    10.170423    16.162097         8000 
    1600            8    0.7813544 0.0050194919     7.884705    10.548284    18.432989         8000 
    1700          8.5   0.54417685 -0.003231465    5.8289955    7.3463875    13.175383         8000 
    1800            9   0.59928348 -0.00073796871    7.0166275     8.090327    15.106955         8000 
    1900          9.5   0.62713613 0.0014068627    8.6388636    8.4663377    17.105201         8000 
    2000           10   0.55322512 -0.0013779564    7.0763873    7.4685391    14.544926         8000 
    2100         10.5   0.64650748 -0.00081430509    8.9536844     8.727851    17.681535         8000 
    2200           11    1.0817849 0.0015745574    9.8678132    14.604096    24.471909         8000 
    2300         11.5    0.9087468 0.0026941113    12.855271    12.268082    25.123353         8000 
    2400           12   0.59909661 -0.0021255969    6.5426958    8.0878042      14.6305         8000 
    2500         12.5   0.51457346 0.0014681059    5.0501765    6.9467416    11.996918         8000 
    2600           13   0.42503058 0.0021896938    7.1947835    5.7379128    12.932696         8000 
    2700         13.5   0.29619868 -0.0019256202    9.4757683    3.9986822    13.474451         8000 
    2800           14   0.37402571 -0.0012207988    6.2981354    5.0493471    11.347482         8000 
    2900         14.5   0.32263268 0.0021078938    7.2932688    4.3555412     11.64881         8000 
    3000           15    0.5573622 -0.0029150711    5.7179529    7.5243896    13.242343         8000 
    3100         15.5   0.54744897 -0.0035061629    6.0977997    7.3905611    13.488361         8000 
    3200           16   0.73695917 0.0011198455    4.1713661    9.9489488    14.120315         8000 
    3300         16.5   0.55803188  0.002110565    4.4541914    7.5334304    11.987622         8000 
    3400           17   0.69515491 -0.00018532796    5.5692415    9.3845912    14.953833         8000 
    3500         17.5   0.39199342 -0.002579283    7.7839461    5.2919112    13.075857         8000 
    3600           18   0.50621208 0.0033994035     6.782205    6.8338631    13.616068         8000 
    3700         18.5   0.57323972 -0.0005955465    4.7222357    7.7387362    12.460972         8000 
    3800           19   0.54627651 -0.0017861376    4.3989271    7.3747329     11.77366         8000 
    3900         19.5   0.44466261 -0.0013409536    6.4489139    6.0029453    12.451859         8000 
    4000           20   0.67236246 -0.0017847717    5.0110311    9.0768932    14.087924         8000 
    4100         20.5   0.42758519 0.0029199051    6.9839198    5.7724001     12.75632         8000 
    4200           21   0.28583511 0.0027585021    8.6731542     3.858774    12.531928         8000 
    4300         21.5   0.40920753 -0.001658175    6.2481532    5.5243016    11.772455         8000 
    4400           22   0.54522688 -0.00019479575    4.1498691    7.3605628    11.510432         8000 
    4500         22.5   0.55770687 -0.003142203    7.3647831    7.5290427    14.893826         8000 
    4600           23    0.5115912 0.00079787684     4.113242    6.9064812    11.019723         8000 
    4700         23.5   0.66822879 0.0035974826    4.3289779    9.0210886    13.350067         8000 
    4800           24   0.50482362 0.0027480909    6.5704552    6.8151188    13.385574         8000 
    4900         24.5    0.6351571 0.0024804066    4.6930572    8.5746208    13.267678         8000 
    5000           25   0.65470209 -0.00045517577     9.193434    8.8384782    18.031912         8000 
    5100         25.5   0.47342814 -0.0081207745    8.5481974    6.3912798    14.939477         8000 
    5200           26    0.7119923 0.0011079887    7.4672629     9.611896    17.079159         8000 
    5300         26.5   0.68509596 0.0021884635    6.0574159    9.2487955    15.306211         8000 
    5400           27   0.63174064  0.001019345    5.8531058    8.5284986    14.381604         8000 
    5500         27.5    0.6048767 -0.0013945529    7.0175535    8.1658354    15.183389         8000 
    5600           28   0.52310196  0.006223478    12.730033    7.0618764     19.79191         8000 
    5700         28.5   0.82486668 -0.00044653523    8.4336492      11.1357    19.569349         8000 
    5800           29   0.80573466 -0.0008292045    7.9607953    10.877418    18.838213         8000 
    5900         29.5   0.56797388 0.0024602483    11.046922    7.6676474     18.71457         8000 
    6000           30    1.0544968 -0.0044179296    12.320154    14.235707    26.555861         8000 
    6100         30.5   0.56588466 -0.00059530381    12.163465     7.639443    19.802908         8000 
    6200           31   0.76279288 4.2725484e-05    6.9803472    10.297704    17.278051         8000 
    6300         31.5   0.53459984 -0.00097966358    8.5008614    7.2170979    15.717959         8000 
    6400           32    0.4753552 0.0016690787    6.1363187    6.4172951    12.553614         8000 
    6500         32.5    0.5057408 -0.00060304409     4.829926    6.8275008    11.657427         8000 
    6600           33   0.36247726 -0.00057464621    6.4594432     4.893443    11.352886         8000 
    6700         33.5    0.5201563 0.0015551726    8.0239026    7.0221101    15.046013         8000 
    6800           34   0.65561082 -0.00011665965      5.94226     8.850746    14.793006         8000 
    6900         34.5   0.84257531 0.00045910059    5.2213389    11.374767    16.596106         8000 
    7000           35   0.70745297 -0.0011945698    7.2772343    9.5506151    16.827849         8000 
    7100         35.5    0.5532776 -0.0037379832    10.776529    7.4692476    18.245777         8000 
    7200           36   0.65401277 -0.0012680019    7.9836617    8.8291724    16.812834         8000 
    7300         36.5   0.55840202 0.0045365404    9.4049579    7.5384273    16.943385         8000 
    7400           37   0.32264352 0.00056391762    8.5307552    4.3556875    12.886443         8000 
    7500         37.5   0.55466924 -0.0022348136    3.4474366    7.4880347    10.935471         8000 
    7600           38   0.81956504 0.00026953549    6.0684305    11.064128    17.132559         8000 
    7700         38.5   0.76117833 0.0028061937    3.9359768    10.275907    14.211884         8000 
    7800           39   0.62525926 -0.0018952875    5.2375331        8.441    13.678533         8000 
    7900         39.5   0.54598202 -0.0025874436    5.1469712    7.3707572    12.517728         8000 
    8000           40   0.37233768 0.0030541015    4.8244452    5.0265587    9.8510039         8000 
    8100         40.5   0.74320156 0.0036270713    3.5172501    10.033221    13.550471         8000 
    8200           41   0.47854336 -0.001654118    7.2301776    6.4603354    13.690513         8000 
    8300         41.5   0.75427534 0.00060636125    4.3795184    10.182717    14.562236         8000 
    8400           42   0.63117025 0.0015160981    8.2277737    8.5207984    16.748572         8000 
    8500         42.5   0.62911215 -0.0024382982     6.686657     8.493014    15.179671         8000 
    8600           43    0.3645343 -0.0021121842    10.867221     4.921213    15.788435         8000 
    8700         43.5   0.51104555 0.0033285231    6.5803305    6.8991149    13.479445         8000 
    8800           44   0.77024066  0.001703485    7.5046898    10.398249    17.902939         8000 
    8900         44.5    0.5552241 -0.0015254841    6.3253947    7.4955253     13.82092         8000 
    9000           45   0.56525754 -0.0067049015    6.8669004    7.6309767    14.497877         8000 
    9100         45.5   0.48169294 0.0045109129    8.4601694    6.5028547    14.963024         8000 
    9200           46   0.49437449 0.0034077025    8.9808835    6.6740556    15.654939         8000 
    9300         46.5   0.90812083 -0.0010876938    7.0215948    12.259631    19.281226         8000 
    9400           47   0.64568957 -0.0056995061    9.9421956    8.7168092    18.659005         8000 
    9500         47.5   0.75953162 0.00018176752    7.4495276    10.253677    17.703205         8000 
    9600           48   0.85494433 -0.00073974983    7.9184422    11.541748    19.460191         8000 
    9700         48.5   0.73088504 0.00022421133    6.3178818    9.8669481     16.18483         8000 
    9800           49   0.99645003 0.0016150193    4.5585289    13.452075    18.010604         8000 
    9900         49.5   0.79849445 0.00025036695    8.2033493    10.779675    18.983024         8000 
   10000           50   0.42724745 0.00070814594    6.2608085    5.7678406    12.028649         8000 
   10100         50.5   0.38994678 0.0014264604    6.0749084    5.2642816     11.33919         8000 
   10200           51   0.69220747 0.0037509782    7.5384371    9.3448008    16.883238         8000 
   10300         51.5   0.54225615 0.00018644855    5.7807536     7.320458    13.101212         8000 
   10400           52   0.30099844 -0.0021920739    7.0660668    4.0634789    11.129546         8000 
   10500         52.5   0.43104239 -0.0015127586    6.9419979    5.8190723     12.76107         8000 
   10600           53   0.52681487 0.00030595978    7.0954168    7.1120007    14.207418         8000 
   10700         53.5   0.56664559 0.0045085071    7.7530875    7.6497155    15.402803         8000 
   10800           54   0.58109273 -0.001435704    4.7340631    7.8447518    12.578815         8000 
   10900         54.5   0.40365939 -0.0038211637    7.5670334    5.4494018    13.016435         8000 
   11000           55    0.4919388 0.0020502261     3.286254    6.6411739    9.9274279         8000 
   11100         55.5   0.55867971 0.00058908724    3.6922842    7.5421761     11.23446         8000 
   11200           56   0.51244566 0.00069271038    6.0368186    6.9180164    12.954835         8000 
   11300         56.5   0.94889935 0.00099792404    3.5831766    12.810141    16.393318         8000 
   11400           57   0.64901948 0.00061399427    6.9234164    8.7617629    15.685179         8000 
   11500         57.5    0.4434227 -0.0048027194    6.8150276    5.9862065    12.801234         8000 
   11600           58   0.47949459 0.00027230948    6.2721499    6.4731769    12.745327         8000 
   11700         58.5    0.3865389 0.0019128965    4.5950046    5.2182752    9.8132798         8000 
   11800           59   0.46691634 0.0031875282    5.6423319    6.3033706    11.945702         8000 
   11900         59.5   0.56592402 -0.0027614495    5.4492801    7.6399743    13.089254         8000 
   12000           60   0.53982035 -0.0068584129    6.9983756    7.2875747     14.28595         8000 
   12100         60.5   0.38048349 0.0011077638    4.0158838    5.1365272     9.152411         8000 
   12200           61   0.52861955 0.0047206275    4.6745228     7.136364    11.810887         8000 
   12300         61.5   0.41728447 0.0051878337    4.4629071    5.6333403    10.096247         8000 
   12400           62   0.56804318 -0.0046408534    3.8394416    7.6685829    11.508024         8000 
   12500         62.5   0.55593594  -0.00488742    5.9695908    7.5051352    13.474726         8000 
   12600           63   0.40343598 0.0011838605    4.4653976    5.4463857    9.9117832         8000 
   12700         63.5   0.40971558 0.0014401158     6.607418    5.5311603    12.138578         8000 
   12800           64   0.50752714 -0.0013243007    7.2888914    6.8516164    14.140508         8000 
   12900         64.5   0.56439536 0.00016933825    4.9867813    7.6193373    12.606119         8000 
   13000           65   0.53135865 -0.0015311322    8.3518884    7.1733418     15.52523         8000 
   13100         65.5   0.56102445 -0.00062919557    9.0511175    7.5738301    16.624948         8000 
   13200           66   0.65306903 0.0035335098    5.8978199    8.8164319    14.714252         8000 
   13300         66.5   0.54129665 0.00073518446    5.6842323    7.3075048    12.991737         8000 
   13400           67   0.38117558 -0.0021366728    8.1461022    5.1458704    13.291973         8000 
   13500         67.5   0.32851924 4.0156496e-05    10.191963    4.4350098    14.626973         8000 
   13600           68   0.54259177 0.0012619442    9.9784232    7.3249888    17.303412         8000 
   13700         68.5   0.69561683 -0.0011052636    4.6202091    9.3908272    14.011036         8000 
   13800           69   0.65003642 0.0016423729    7.9581535    8.7754917    16.733645         8000 
   13900         69.5    0.4616697 0.0002184073    7.9185227    6.2325409    14.151064         8000 
   14000           70   0.38921921 -0.0023379321    7.2217541    5.2544593    12.476213         8000 
   14100         70.5   0.44974282 -0.0030159153    5.3589853    6.0715281    11.430513         8000 
   14200           71   0.39166255 4.9193173e-05    6.8452686    5.2874444    12.132713         8000 
   14300         71.5   0.40803706 -0.0022979519    9.4450966    5.5085003    14.953597         8000 
   14400           72   0.63595951 0.0014596506    7.4488205    8.5854534    16.034274         8000 
   14500         72.5   0.54240344 0.00064402299    6.9205779    7.3224464    14.243024         8000 
   14600           73     0.717728 0.00033266305    6.8549398     9.689328    16.544268         8000 
   14700         73.5   0.68907691 0.0027071344    3.2446918    9.3025383     12.54723         8000 
   14800           74   0.35283009 0.0041002189    4.1286116    4.7632062    8.8918179         8000 
   14900         74.5   0.49440801 0.0033866166    4.0804202    6.6745082    10.754928         8000 
   15000           75   0.80493384 -0.003537625    3.3947319    10.866607    14.261339         8000 
   15100         75.5   0.55669413 -0.0037253285    4.7042032    7.5153707    12.219574         8000 
   15200           76   0.66605842 0.0017381036    4.0994856    8.9917887    13.091274         8000 
   15300         76.5   0.32766234 0.00091333566    8.0065587    4.4234415        12.43         8000 
   15400           77   0.58572477 0.0010845215    6.0243273    7.9072844    13.931612         8000 
   15500         77.5   0.47138324 -0.0013175214    7.3545218    6.3636738    13.718196         8000 
   15600           78   0.59733476 -0.0037815408    5.6442773    8.0640193    13.708297         8000 
   15700         78.5   0.64260503 -0.0020471391    9.0347831    8.6751679    17.709951         8000 
   15800           79   0.91277215 0.00010237819    7.6170262    12.322424     19.93945         8000 
   15900         79.5   0.52185144 0.0039513172    7.0970254    7.0449944     14.14202         8000 
   16000           80   0.47035404 0.0014954845    7.4938088    6.3497795    13.843588         8000 
   16100         80.5   0.35350382 -0.0036860767    5.7562945    4.7723016    10.528596         8000 
   16200           81   0.36176388 -0.0031035613    5.2960393    4.8838124    10.179852         8000 
   16300         81.5   0.62196931 0.0010621002    5.4379657    8.3965857    13.834551         8000 
   16400           82   0.41981642 0.0037424865    7.6771017    5.6675216    13.344623         8000 
   16500         82.5   0.55406443 0.0059551257    5.2421161    7.4798698    12.721986         8000 
   16600           83   0.45464137 -6.3885472e-05    5.0893292    6.1376585    11.226988         8000 
   16700         83.5   0.36038955 -0.00060798121    6.8680774     4.865259    11.733336         8000 
   16800           84   0.73398643  0.001950986    2.5462137    9.9088168     12.45503         8000 
   16900         84.5   0.61615842 0.00098040665     6.870631    8.3181387     15.18877         8000 
   17000           85   0.75782203 -0.0058959801    7.5609069    10.230597    17.791504         8000 
   17100         85.5   0.72625829 0.00024357659    5.4019029    9.8044869     15.20639         8000 
   17200           86    0.6876984 0.0070687628    8.0799346    9.2839284    17.363863         8000 
   17300         86.5   0.60656974 0.0025453519    8.2074621    8.1886915    16.396154         8000 
   17400           87   0.72204076 0.00019422844    9.4966726    9.7475502    19.244223         8000 
   17500         87.5   0.71827856 -0.001611036    7.2443228    9.6967606    16.941083         8000 
   17600           88   0.33256276 -0.0047079386    11.767111    4.4895973    16.256708         8000 
   17700         88.5   0.39439958 -0.0014124861    9.3929683    5.3243943    14.717363         8000 
   17800           89   0.82611729 0.0015266967    5.6324354    11.152583    16.785019         8000 
   17900         89.5    0.4508427 -0.0028897516    9.0372907    6.0863764    15.123667         8000 
   18000           90   0.35347962 -0.00042490385    7.4599913    4.7719748    12.231966         8000 
   18100         90.5   0.53271619 0.00037594143    6.3489963    7.1916685    13.540665         8000 
   18200           91   0.27906079 0.0012958559     6.504236    3.7673207    10.271557         8000 
   18300         91.5   0.57600599 -0.002729622    6.1208798    7.7760809    13.896961         8000 
   18400           92   0.60524866 0.0012330937    4.2774479    8.1708569    12.448305         8000 
   18500         92.5   0.33258621 0.0031409333    6.1304622    4.4899139    10.620376         8000 
   18600           93   0.37442247 0.00033078208     6.812228    5.0547034    11.866931         8000 
   18700         93.5   0.64226836 -0.00048571176    5.9548386    8.6706229    14.625461         8000 
   18800           94   0.61996646 -0.00084979979    5.9068264    8.3695472    14.276374         8000 
   18900         94.5   0.59127694 0.0029078126    5.0839021    7.9822387    13.066141         8000 
   19000           95   0.68465383 -0.0034572385    6.3129433    9.2428267     15.55577         8000 
   19100         95.5   0.70965599 -0.0023670201    6.7235186    9.5803558    16.303874         8000 
   19200           96    0.6236835 0.0032940906    5.3029954    8.4197273    13.722723         8000 
   19300         96.5   0.45074197 0.00081314472    5.4495761    6.0850167    11.534593         8000 
   19400           97   0.40683402 0.0013692275    6.5908016    5.4922592    12.083061         8000 
   19500         97.5    0.5344701 -0.0018171545    6.4941937    7.2153463     13.70954         8000 
   19600           98   0.62385208 0.00018923692    6.9141487     8.422003    15.336152         8000 
   19700         98.5   0.50415059 5.1621653e-05    8.3291806     6.806033    15.135214         8000 
   19800           99   0.70973957 -0.00034529986    4.1580167    9.5814841    13.739501         8000 
   19900         99.5   0.79396722 -0.0003230155    7.3786929    10.718557     18.09725         8000 
   20000          100   0.52208638 0.00062435438    8.7612417    7.0481661    15.809408         8000 
Loop time of 0.838388 on 1 procs for 20000 steps with 10 atoms

Performance: 10305491.430 tau/day, 23855.304 timesteps/s
13.0% CPU use with 1 MPI tasks x 1 OpenMP threads

MPI task timing breakdown:
Section |  min time  |  avg time  |  max time  |%varavg| %total
---------------------------------------------------------------
Pair    | 0.0032859  | 0.0032859  | 0.0032859  |   0.0 |  0.39
Bond    | 0.026304   | 0.026304   | 0.026304   |   0.0 |  3.14
Neigh   | 0.013017   | 0.013017   | 0.013017   |   0.0 |  1.55
Comm    | 0.0059206  | 0.0059206  | 0.0059206  |   0.0 |  0.71
Output  | 0.73425    | 0.73425    | 0.73425    |   0.0 | 87.58
Modify  | 0.025479   | 0.025479   | 0.025479   |   0.0 |  3.04
Other   |            | 0.03013    |            |       |  3.59

Nlocal:    10 ave 10 max 10 min
Histogram: 1 0 0 0 0 0 0 0 0 0
Nghost:    0 ave 0 max 0 min
Histogram: 1 0 0 0 0 0 0 0 0 0
Neighs:    0 ave 0 max 0 min
Histogram: 1 0 0 0 0 0 0 0 0 0

Total # of neighbors = 0
Ave neighs/atom = 0
Ave special neighs/atom = 4.8
Neighbor list builds = 316
Dangerous builds = 0

# SHELL
shell copy output.dump        output_T_${T}_box_${box}_run_${run_tau}.dump
shell copy output.dump        output_T_0.5_box_${box}_run_${run_tau}.dump
shell copy output.dump        output_T_0.5_box_50_run_${run_tau}.dump
shell copy output.dump        output_T_0.5_box_50_run_100.dump
shell echo> T_${T}.done
shell echo> T_0.5.done
#shell commands modified for use in windows

#This section  of codes allows looping over the list of T values
#clear
#next T
#jump in.run

Total wall time: 0:00:01
